Name: In-silico spectrum 73
Formula:
MW:
CAS#:
Comments: in-silico spectrum
Num peaks: 32
27.00 12.31
29.00 88.08
39.00 107.46
41.00 791.36
42.00 133.32
43.00 740.41
53.00 74.22
54.00 90.70
55.00 998.92
56.00 286.36
57.00 695.94
58.00 29.42
67.00 358.98
68.00 280.65
69.00 868.44
70.00 226.93
71.00 324.27
81.00 265.81
82.00 338.18
83.00 807.52
84.00 115.30
85.00 201.99
95.00 300.11
97.00 586.29
98.00 107.61
99.00 39.07
110.00 79.91
111.00 337.89
112.00 45.57
113.00 21.12
125.00 170.99
141.00 41.37
