Name: In-silico spectrum 73
Formula:
MW:
CAS#:
Comments: in-silico spectrum
Num peaks: 68
26.00 5.99
27.00 111.30
28.00 32.88
29.00 195.42
30.00 0.04
39.00 92.15
40.00 22.78
41.00 518.09
42.00 114.98
43.00 633.71
44.00 22.04
51.00 6.55
53.00 42.08
54.00 55.15
55.00 615.98
56.00 239.13
57.00 603.73
58.00 25.77
65.00 10.29
66.00 5.51
67.00 161.07
68.00 100.37
69.00 441.76
70.00 186.82
71.00 299.74
72.00 15.23
77.00 9.41
81.00 63.50
82.00 275.35
83.00 510.10
84.00 141.58
85.00 194.19
86.00 10.89
91.00 8.30
95.00 37.39
96.00 55.79
97.00 308.21
98.00 64.34
99.00 20.49
100.00 1.97
110.00 22.19
111.00 181.33
112.00 47.25
113.00 1.97
124.00 14.55
125.00 85.50
126.00 29.64
128.00 0.45
131.00 13.37
138.00 9.82
139.00 43.54
140.00 31.41
141.00 3.03
152.00 8.44
153.00 28.13
154.00 16.64
166.00 9.17
167.00 23.35
180.00 4.98
181.00 10.81
182.00 14.12
195.00 4.24
209.00 5.16
210.00 11.46
222.00 3.82
223.00 8.38
251.00 0.77
420.00 0.25
