Name: In-silico spectrum 73
Formula:
MW:
CAS#:
Comments: in-silico spectrum
Num peaks: 30
27.00 101.02
29.00 191.29
39.00 101.63
41.00 718.01
42.00 155.71
43.00 709.99
54.00 114.62
55.00 956.86
56.00 325.30
57.00 799.94
58.00 20.66
67.00 290.05
68.00 185.90
69.00 685.91
70.00 186.36
71.00 366.84
81.00 174.36
82.00 482.12
83.00 845.90
84.00 143.81
85.00 254.84
95.00 128.39
97.00 520.16
98.00 281.17
99.00 118.08
110.00 55.69
111.00 302.61
112.00 64.16
125.00 162.03
127.00 23.35
