Name: In-silico spectrum 73
Formula:
MW:
CAS#:
Comments: in-silico spectrum
Num peaks: 25
29.00 94.54
41.00 623.81
42.00 120.94
43.00 874.73
55.00 865.44
56.00 368.70
57.00 1144.89
58.00 27.64
67.00 148.67
68.00 63.21
69.00 598.23
70.00 239.14
71.00 683.32
82.00 352.63
83.00 680.06
84.00 108.40
85.00 485.82
97.00 453.15
98.00 82.54
99.00 200.57
111.00 304.30
113.00 98.72
125.00 69.86
127.00 42.40
141.00 117.53
