Name: In-silico spectrum 73
Formula:
MW:
CAS#:
Comments: in-silico spectrum
Num peaks: 24
27.00 11.68
29.00 90.29
39.00 30.34
41.00 510.24
42.00 75.05
43.00 494.45
55.00 662.19
56.00 152.48
57.00 441.79
67.00 301.93
68.00 252.70
69.00 524.33
70.00 97.65
71.00 178.95
82.00 428.76
83.00 637.35
84.00 85.93
85.00 109.09
95.00 217.87
96.00 104.14
97.00 367.67
99.00 4.94
111.00 224.56
125.00 65.95
