Name: In-silico spectrum 69
Formula:
MW:
CAS#:
Comments: in-silico spectrum
Num peaks: 31
27.00 23.98
29.00 66.31
39.00 36.69
41.00 375.39
42.00 114.23
43.00 732.15
54.00 57.60
55.00 335.62
56.00 240.73
57.00 1039.19
58.00 28.77
68.00 49.67
69.00 219.43
70.00 111.12
71.00 679.15
82.00 45.96
83.00 186.29
84.00 48.26
85.00 447.47
97.00 159.23
98.00 254.49
99.00 238.85
111.00 93.00
112.00 46.25
113.00 113.22
125.00 57.79
127.00 118.85
141.00 55.37
155.00 68.85
168.00 41.21
169.00 36.07
