Name: In-silico spectrum 69
Formula:
MW:
CAS#:
Comments: in-silico spectrum
Num peaks: 21
29.00 76.41
41.00 447.46
42.00 97.08
43.00 1049.31
55.00 377.47
56.00 355.12
57.00 1427.19
58.00 46.89
69.00 209.95
70.00 231.45
71.00 932.29
83.00 46.62
84.00 74.51
85.00 671.89
97.00 76.31
98.00 34.75
99.00 257.02
111.00 68.95
113.00 132.36
127.00 83.50
141.00 164.07
