Name: In-silico spectrum 6
Formula:
MW:
CAS#:
Comments: in-silico spectrum
Num peaks: 35
57.00 1035.61
411.00 4396.01
412.00 4639.89
413.00 5445.06
414.00 5858.10
415.00 5641.18
416.00 5333.65
417.00 5337.47
418.00 4991.93
419.00 4504.26
420.00 13787.39
421.00 17929.85
422.00 24859.67
423.00 27694.51
424.00 27321.29
425.00 26509.30
426.00 25162.41
427.00 23604.79
428.00 21885.70
431.00 1109.48
432.00 1958.22
433.00 2414.07
434.00 1913.80
435.00 2531.12
436.00 2034.98
437.00 2003.02
447.00 14306.42
448.00 12467.15
449.00 25581.26
450.00 38373.60
451.00 40277.73
452.00 39459.68
453.00 37904.77
454.00 36121.69
455.00 33785.46
