Name: In-silico spectrum 6
Formula:
MW:
CAS#:
Comments: in-silico spectrum
Num peaks: 51
26.00 1.04
27.00 67.54
28.00 15.61
29.00 123.36
39.00 53.01
40.00 8.12
41.00 285.92
42.00 75.69
43.00 702.70
44.00 19.27
53.00 15.13
54.00 7.48
55.00 145.45
56.00 157.09
57.00 786.61
58.00 36.33
65.00 0.83
69.00 65.89
70.00 122.17
71.00 515.59
72.00 26.03
84.00 80.28
85.00 346.08
86.00 20.77
97.00 3.12
98.00 28.77
99.00 83.59
100.00 7.48
112.00 29.65
113.00 55.45
114.00 4.04
126.00 23.51
127.00 43.75
128.00 3.90
140.00 14.71
141.00 31.47
142.00 3.51
154.00 12.57
155.00 25.70
156.00 2.67
169.00 9.72
170.00 0.86
182.00 7.83
183.00 15.77
184.00 0.46
197.00 1.26
210.00 5.98
211.00 8.86
226.00 0.09
239.00 3.11
281.00 0.71
