Name: In-silico spectrum 69
Formula:
MW:
CAS#:
Comments: in-silico spectrum
Num peaks: 35
29.00 42.66
39.00 52.41
41.00 342.89
42.00 80.98
43.00 745.51
53.00 61.22
54.00 17.79
55.00 323.91
56.00 189.01
57.00 1074.99
58.00 50.87
68.00 27.93
69.00 211.41
70.00 142.13
71.00 719.56
81.00 13.30
82.00 8.62
83.00 164.25
84.00 61.00
85.00 503.91
97.00 133.23
98.00 60.68
99.00 179.78
111.00 70.69
112.00 27.49
113.00 124.70
125.00 32.44
126.00 27.32
127.00 84.06
139.00 30.25
140.00 24.80
141.00 124.47
155.00 56.10
168.00 59.90
169.00 116.47
