Name: In-silico spectrum 69
Formula:
MW:
CAS#:
Comments: in-silico spectrum
Num peaks: 68
26.00 0.26
27.00 45.56
28.00 11.97
29.00 98.08
39.00 42.07
40.00 6.96
41.00 273.74
42.00 71.50
43.00 686.41
44.00 19.10
53.00 13.63
54.00 8.41
55.00 161.11
56.00 154.64
57.00 803.30
58.00 37.38
65.00 0.73
68.00 3.08
69.00 80.57
70.00 117.55
71.00 536.44
72.00 27.45
83.00 14.96
84.00 73.61
85.00 361.93
86.00 22.26
97.00 23.17
98.00 32.18
99.00 101.07
100.00 9.14
111.00 9.22
112.00 30.28
113.00 69.30
114.00 5.70
125.00 2.90
126.00 24.23
127.00 53.17
128.00 5.04
140.00 16.92
141.00 39.24
142.00 4.38
154.00 15.10
155.00 32.52
156.00 3.69
168.00 10.53
169.00 19.29
170.00 2.04
182.00 9.32
183.00 20.92
184.00 1.49
197.00 10.10
210.00 9.27
211.00 14.96
224.00 4.78
225.00 9.11
226.00 2.09
238.00 2.33
239.00 13.34
240.00 1.02
253.00 3.77
267.00 4.15
268.00 0.29
280.00 1.84
281.00 8.42
282.00 1.08
295.00 4.00
296.00 3.00
309.00 4.16
