Name: In-silico spectrum 23
Formula:
MW:
CAS#:
Comments: in-silico spectrum
Num peaks: 18
41.00 135.34
42.00 29.12
43.00 369.88
55.00 186.84
56.00 142.65
57.00 706.87
69.00 128.98
70.00 78.93
71.00 506.78
83.00 128.56
84.00 23.15
85.00 326.64
97.00 105.36
99.00 120.99
111.00 56.82
113.00 103.35
127.00 72.68
141.00 36.79
