Name: In-silico spectrum 60
Formula:
MW:
CAS#:
Comments: in-silico spectrum
Num peaks: 21
29.00 75.49
41.00 453.29
42.00 98.41
43.00 1063.60
55.00 384.41
56.00 361.05
57.00 1451.18
58.00 47.74
69.00 214.30
70.00 234.65
71.00 949.06
83.00 48.76
84.00 75.11
85.00 683.97
97.00 78.91
98.00 35.58
99.00 262.55
111.00 70.85
113.00 135.55
127.00 85.58
141.00 167.55
