Name: In-silico spectrum 60
Formula:
MW:
CAS#:
Comments: in-silico spectrum
Num peaks: 120
29.00 14.05
39.00 9.41
40.00 5.78
41.00 278.98
42.00 68.16
43.00 683.54
44.00 21.07
53.00 12.57
54.00 19.61
55.00 292.09
56.00 171.51
57.00 933.77
58.00 43.89
65.00 1.38
67.00 40.46
68.00 31.51
69.00 190.44
70.00 117.58
71.00 650.91
72.00 33.86
81.00 29.65
82.00 37.59
83.00 158.22
84.00 62.46
85.00 448.42
86.00 29.85
91.00 8.00
95.00 12.33
96.00 37.31
97.00 139.81
98.00 52.18
99.00 174.35
100.00 15.46
110.00 18.10
111.00 77.36
112.00 38.31
113.00 125.80
114.00 11.57
124.00 10.35
125.00 44.37
126.00 30.50
127.00 91.15
128.00 8.22
138.00 4.39
139.00 20.04
140.00 29.70
141.00 70.89
142.00 7.71
152.00 5.08
153.00 15.34
154.00 27.70
155.00 59.99
156.00 7.04
166.00 1.72
167.00 9.43
168.00 59.96
169.00 57.26
170.00 5.74
181.00 3.92
182.00 17.30
183.00 40.04
184.00 6.79
195.00 3.95
196.00 45.65
197.00 43.52
198.00 6.22
209.00 1.41
210.00 23.29
211.00 37.55
212.00 1.25
222.00 2.23
223.00 5.46
224.00 56.45
225.00 47.50
226.00 10.57
238.00 27.18
239.00 51.35
240.00 8.53
252.00 35.31
253.00 40.39
254.00 4.96
266.00 25.49
267.00 35.96
268.00 7.70
280.00 29.71
281.00 38.44
282.00 6.77
294.00 35.84
295.00 51.75
296.00 16.32
308.00 22.29
309.00 34.36
310.00 6.62
322.00 15.99
323.00 28.21
324.00 9.37
336.00 24.19
337.00 31.23
338.00 9.16
350.00 18.38
351.00 37.76
352.00 11.22
364.00 11.40
365.00 19.19
366.00 4.40
378.00 1.08
379.00 13.40
392.00 7.50
393.00 16.28
394.00 5.52
407.00 3.77
421.00 10.52
435.00 4.85
449.00 10.79
450.00 4.89
463.00 10.32
464.00 0.43
477.00 10.40
505.00 5.03
519.00 3.38
