Name: In-silico spectrum 60
Formula:
MW:
CAS#:
Comments: in-silico spectrum
Num peaks: 19
29.00 13.30
41.00 231.28
42.00 48.50
43.00 513.83
55.00 188.65
56.00 200.66
57.00 825.29
69.00 128.64
70.00 72.97
71.00 523.86
83.00 28.56
84.00 43.38
85.00 367.15
97.00 48.67
98.00 2.45
99.00 150.23
113.00 71.56
127.00 51.93
141.00 15.83
