Name: In-silico spectrum 60
Formula:
MW:
CAS#:
Comments: in-silico spectrum
Num peaks: 36
29.00 21.96
39.00 48.12
41.00 327.32
42.00 74.60
43.00 723.04
53.00 62.50
54.00 17.71
55.00 342.66
56.00 209.53
57.00 1116.17
58.00 51.23
68.00 37.16
69.00 253.38
70.00 154.09
71.00 759.02
81.00 33.98
82.00 16.93
83.00 187.40
84.00 62.82
85.00 538.80
97.00 171.75
98.00 62.58
99.00 200.84
110.00 7.84
111.00 95.43
112.00 29.23
113.00 141.49
125.00 50.35
126.00 29.59
127.00 96.35
139.00 43.02
140.00 38.45
141.00 134.18
155.00 62.86
168.00 87.42
169.00 129.20
