Name: In-silico spectrum 23
Formula:
MW:
CAS#:
Comments: in-silico spectrum
Num peaks: 35
57.00 1375.03
411.00 5821.08
412.00 6158.70
413.00 7211.44
414.00 7770.82
415.00 7471.82
416.00 7045.79
417.00 7053.89
418.00 6602.52
419.00 5951.09
420.00 18335.32
421.00 23848.14
422.00 33109.80
423.00 36872.07
424.00 36382.97
425.00 35295.75
426.00 33496.11
427.00 31409.46
428.00 29132.84
431.00 1475.52
432.00 2584.14
433.00 3194.46
434.00 2531.82
435.00 3342.06
436.00 2688.10
437.00 2658.05
447.00 19030.09
448.00 16578.09
449.00 34058.92
450.00 51090.01
451.00 53617.63
452.00 52522.62
453.00 50457.33
454.00 48090.13
455.00 45000.43
