Name: In-silico spectrum 60
Formula:
MW:
CAS#:
Comments: in-silico spectrum
Num peaks: 35
57.00 1385.67
411.00 5865.96
412.00 6206.26
413.00 7267.10
414.00 7830.82
415.00 7529.58
416.00 7100.28
417.00 7108.29
418.00 6653.44
419.00 5997.00
420.00 18477.08
421.00 24032.56
422.00 33365.95
423.00 37157.31
424.00 36664.38
425.00 35568.76
426.00 33755.09
427.00 31652.38
428.00 29358.08
431.00 1486.80
432.00 2604.10
433.00 3219.06
434.00 2551.41
435.00 3367.74
436.00 2708.81
437.00 2678.59
447.00 19177.39
448.00 16706.31
449.00 34322.26
450.00 51485.29
451.00 54032.52
452.00 52928.96
453.00 50847.80
454.00 48462.11
455.00 45348.47
