Name: In-silico spectrum 74
Formula:
MW:
CAS#:
Comments: in-silico spectrum
Num peaks: 97
27.00 6.17
28.00 6.54
29.00 65.05
39.00 29.45
40.00 6.46
41.00 300.45
42.00 76.59
43.00 723.92
44.00 20.63
53.00 13.71
54.00 17.22
55.00 250.98
56.00 175.29
57.00 909.33
58.00 42.57
65.00 0.63
67.00 21.66
68.00 21.82
69.00 152.26
70.00 125.83
71.00 617.58
72.00 31.72
82.00 9.74
83.00 105.72
84.00 74.82
85.00 421.42
86.00 26.99
96.00 15.86
97.00 93.37
98.00 45.58
99.00 141.45
100.00 12.38
110.00 2.65
111.00 50.63
112.00 37.23
113.00 99.55
114.00 8.56
124.00 2.54
125.00 26.81
126.00 29.28
127.00 73.64
128.00 5.96
139.00 10.97
140.00 25.14
141.00 56.39
142.00 6.18
153.00 5.94
154.00 22.77
155.00 47.48
156.00 5.62
167.00 5.56
168.00 35.77
169.00 39.17
170.00 3.58
182.00 14.80
183.00 31.57
184.00 5.21
196.00 21.23
197.00 26.26
198.00 3.08
210.00 17.43
211.00 26.11
212.00 0.10
224.00 30.23
225.00 28.24
226.00 6.90
238.00 15.08
239.00 30.65
240.00 4.05
252.00 16.53
253.00 21.60
254.00 1.18
266.00 13.24
267.00 19.80
268.00 4.00
280.00 16.34
281.00 23.89
282.00 3.99
294.00 14.84
295.00 27.18
296.00 9.12
308.00 9.45
309.00 19.40
310.00 3.42
322.00 2.82
323.00 12.10
324.00 5.16
336.00 6.75
337.00 11.89
338.00 3.24
350.00 4.74
351.00 16.20
352.00 2.93
365.00 2.18
393.00 2.40
421.00 2.87
463.00 0.59
