Name: In-silico spectrum 74
Formula:
MW:
CAS#:
Comments: in-silico spectrum
Num peaks: 31
29.00 46.99
39.00 51.21
41.00 344.00
42.00 80.85
43.00 740.32
54.00 18.60
55.00 322.52
56.00 184.58
57.00 1056.13
58.00 50.56
68.00 30.55
69.00 208.61
70.00 138.64
71.00 700.33
81.00 9.67
82.00 11.16
83.00 162.75
84.00 62.84
85.00 494.72
97.00 125.02
98.00 60.34
99.00 174.88
111.00 68.77
112.00 25.53
113.00 119.72
125.00 31.29
127.00 80.29
141.00 121.09
155.00 52.83
168.00 55.43
169.00 117.16
