Name: In-silico spectrum 25
Formula:
MW:
CAS#:
Comments: in-silico spectrum
Num peaks: 35
57.00 1089.08
411.00 4619.97
412.00 4879.22
413.00 5722.72
414.00 6159.30
415.00 5929.01
416.00 5602.08
417.00 5606.65
418.00 5244.75
419.00 4731.12
420.00 14505.44
421.00 18864.38
422.00 26164.18
423.00 29145.14
424.00 28753.89
425.00 27898.17
426.00 26479.44
427.00 24837.73
428.00 23030.98
431.00 1167.28
432.00 2056.25
433.00 2536.67
434.00 2010.86
435.00 2658.20
436.00 2137.35
437.00 2106.17
447.00 15052.37
448.00 13116.09
449.00 26921.31
450.00 40383.55
451.00 42385.94
452.00 41523.84
453.00 39888.49
454.00 38013.34
455.00 35558.86
