Name: In-silico spectrum 25
Formula:
MW:
CAS#:
Comments: in-silico spectrum
Num peaks: 91
27.00 17.34
28.00 8.35
29.00 77.65
39.00 34.59
40.00 6.92
41.00 306.03
42.00 78.55
43.00 731.43
44.00 20.64
53.00 14.32
54.00 16.64
55.00 242.66
56.00 176.20
57.00 899.76
58.00 42.03
65.00 0.65
67.00 17.99
68.00 19.85
69.00 144.62
70.00 127.99
71.00 606.53
72.00 31.04
82.00 4.42
83.00 95.23
84.00 78.04
85.00 412.92
86.00 26.24
96.00 11.08
97.00 83.37
98.00 43.88
99.00 132.67
100.00 11.52
111.00 44.95
112.00 36.91
113.00 92.62
114.00 7.78
124.00 0.89
125.00 22.88
126.00 28.93
127.00 68.94
128.00 5.47
139.00 8.98
140.00 24.02
141.00 52.57
142.00 5.75
153.00 3.90
154.00 21.47
155.00 44.09
156.00 5.16
167.00 4.76
168.00 29.73
169.00 34.45
170.00 2.99
182.00 14.05
183.00 29.26
184.00 4.73
196.00 15.14
197.00 21.79
198.00 2.17
210.00 15.87
211.00 23.06
224.00 23.70
225.00 23.34
226.00 5.91
238.00 11.98
239.00 25.32
240.00 2.86
252.00 11.91
253.00 16.86
254.00 0.18
266.00 10.16
267.00 15.67
268.00 2.96
280.00 13.08
281.00 20.16
282.00 3.20
294.00 9.71
295.00 21.00
296.00 7.25
308.00 6.26
309.00 15.57
310.00 2.52
323.00 8.01
324.00 4.04
336.00 2.45
337.00 7.09
338.00 1.68
350.00 1.38
351.00 10.84
352.00 0.86
421.00 0.92
