Name: In-silico spectrum 25
Formula:
MW:
CAS#:
Comments: in-silico spectrum
Num peaks: 21
29.00 76.87
41.00 443.84
42.00 96.30
43.00 1046.96
55.00 369.28
56.00 353.27
57.00 1422.37
58.00 46.73
69.00 203.62
70.00 230.38
71.00 929.27
83.00 37.66
84.00 73.89
85.00 669.73
97.00 70.76
98.00 33.79
99.00 255.45
111.00 65.34
113.00 131.27
127.00 83.00
141.00 163.15
