Name: In-silico spectrum 25
Formula:
MW:
CAS#:
Comments: in-silico spectrum
Num peaks: 17
29.00 58.09
41.00 268.90
42.00 58.90
43.00 574.69
55.00 191.86
56.00 204.74
57.00 845.44
69.00 108.57
70.00 77.27
71.00 519.17
83.00 13.13
84.00 49.32
85.00 355.81
97.00 15.46
99.00 132.97
113.00 53.95
127.00 33.71
