Name: In-silico spectrum 25
Formula:
MW:
CAS#:
Comments: in-silico spectrum
Num peaks: 31
27.00 4.19
29.00 57.92
39.00 54.00
41.00 353.98
42.00 83.03
43.00 759.69
54.00 17.98
55.00 315.12
56.00 181.83
57.00 1058.01
58.00 51.15
68.00 28.35
69.00 198.29
70.00 137.28
71.00 696.81
81.00 2.07
83.00 147.43
84.00 62.54
85.00 487.81
97.00 111.23
98.00 59.57
99.00 168.56
111.00 60.70
112.00 25.44
113.00 114.59
125.00 25.09
127.00 77.20
141.00 118.39
155.00 50.44
168.00 44.20
169.00 113.23
