Name: In-silico spectrum 74
Formula:
MW:
CAS#:
Comments: in-silico spectrum
Num peaks: 35
57.00 1144.11
411.00 4850.58
412.00 5125.44
413.00 6008.60
414.00 6469.24
415.00 6225.32
416.00 5878.67
417.00 5883.99
418.00 5505.16
419.00 4964.86
420.00 15243.75
421.00 19825.21
422.00 27504.83
423.00 30636.15
424.00 30226.28
425.00 29325.67
426.00 27833.17
427.00 26105.18
428.00 24208.18
431.00 1226.72
432.00 2157.30
433.00 2662.93
434.00 2110.83
435.00 2789.16
436.00 2242.84
437.00 2212.32
447.00 15819.29
448.00 13783.36
449.00 28298.65
450.00 42449.43
451.00 44552.92
452.00 43645.62
453.00 41927.52
454.00 39957.62
455.00 37381.36
