Name: In-silico spectrum 74
Formula:
MW:
CAS#:
Comments: in-silico spectrum
Num peaks: 31
27.00 24.00
29.00 66.10
39.00 36.74
41.00 374.08
42.00 113.97
43.00 731.82
54.00 57.25
55.00 332.78
56.00 240.27
57.00 1038.91
58.00 28.83
68.00 49.17
69.00 217.21
70.00 110.81
71.00 679.47
82.00 43.78
83.00 183.16
84.00 47.85
85.00 447.50
97.00 157.38
98.00 253.98
99.00 238.90
111.00 91.88
112.00 45.89
113.00 113.39
125.00 57.05
127.00 118.85
141.00 55.21
155.00 68.96
168.00 41.12
169.00 36.11
