Name: In-silico spectrum 28
Formula:
MW:
CAS#:
Comments: in-silico spectrum
Num peaks: 30
27.00 16.19
29.00 75.45
39.00 59.41
41.00 367.54
42.00 88.18
43.00 807.63
54.00 14.85
55.00 284.73
56.00 181.36
57.00 1092.15
58.00 54.13
68.00 23.52
69.00 169.54
70.00 133.69
71.00 710.01
83.00 97.53
84.00 59.47
85.00 485.98
97.00 76.18
98.00 58.35
99.00 163.77
111.00 38.66
112.00 24.01
113.00 109.57
125.00 8.77
127.00 72.83
141.00 114.73
155.00 47.30
168.00 24.65
169.00 108.06
