Name: In-silico spectrum 46
Formula:
MW:
CAS#:
Comments: in-silico spectrum
Num peaks: 17
29.00 54.29
41.00 270.51
42.00 59.46
43.00 584.00
55.00 192.22
56.00 211.07
57.00 871.61
69.00 110.31
70.00 79.21
71.00 537.68
83.00 7.58
84.00 49.50
85.00 368.11
97.00 14.44
99.00 139.60
113.00 57.54
127.00 37.29
