Name: In-silico spectrum 46
Formula:
MW:
CAS#:
Comments: in-silico spectrum
Num peaks: 31
27.00 38.36
29.00 82.75
39.00 46.32
41.00 391.55
42.00 118.86
43.00 771.63
54.00 55.34
55.00 320.94
56.00 246.52
57.00 1065.65
58.00 29.25
68.00 44.98
69.00 204.80
70.00 115.26
71.00 695.04
82.00 23.46
83.00 158.23
84.00 49.87
85.00 455.67
97.00 138.68
98.00 257.37
99.00 237.33
111.00 82.15
112.00 44.08
113.00 108.61
125.00 50.31
127.00 117.38
141.00 51.22
155.00 67.85
168.00 34.93
169.00 31.35
