Name: In-silico spectrum 46
Formula:
MW:
CAS#:
Comments: in-silico spectrum
Num peaks: 35
27.00 3.00
29.00 54.59
39.00 56.90
41.00 355.18
42.00 84.93
43.00 784.27
53.00 62.92
54.00 15.21
55.00 305.59
56.00 194.70
57.00 1118.45
58.00 54.19
68.00 26.37
69.00 197.41
70.00 144.28
71.00 744.02
81.00 4.39
83.00 129.44
84.00 59.53
85.00 512.02
97.00 111.86
98.00 60.33
99.00 181.21
111.00 57.58
112.00 27.02
113.00 124.57
125.00 24.16
126.00 27.78
127.00 83.57
139.00 24.18
140.00 18.78
141.00 124.17
155.00 56.64
168.00 48.11
169.00 116.10
