Name: In-silico spectrum 28
Formula:
MW:
CAS#:
Comments: in-silico spectrum
Num peaks: 17
29.00 62.03
41.00 198.67
42.00 43.84
43.00 446.43
55.00 161.18
56.00 140.10
57.00 714.35
69.00 75.20
70.00 77.06
71.00 479.84
83.00 55.44
84.00 23.10
85.00 283.67
97.00 7.59
99.00 86.92
113.00 72.94
127.00 33.93
