Name: In-silico spectrum 28
Formula:
MW:
CAS#:
Comments: in-silico spectrum
Num peaks: 21
29.00 78.15
41.00 434.44
42.00 94.30
43.00 1042.63
55.00 346.95
56.00 349.03
57.00 1412.39
58.00 46.48
69.00 186.12
70.00 227.88
71.00 923.25
83.00 12.48
84.00 72.25
85.00 665.44
97.00 55.26
98.00 31.19
99.00 251.85
111.00 55.33
113.00 128.68
127.00 81.85
141.00 161.01
