Name: In-silico spectrum 46
Formula:
MW:
CAS#:
Comments: in-silico spectrum
Num peaks: 30
27.00 3.96
29.00 58.16
39.00 55.13
41.00 356.86
42.00 85.72
43.00 782.76
54.00 16.93
55.00 305.91
56.00 188.22
57.00 1097.76
58.00 53.45
68.00 28.50
69.00 193.16
70.00 137.99
71.00 721.38
83.00 131.60
84.00 61.54
85.00 502.31
97.00 104.50
98.00 60.85
99.00 175.62
111.00 55.55
112.00 25.41
113.00 119.32
125.00 21.54
127.00 79.13
141.00 120.79
155.00 51.76
168.00 44.49
169.00 116.33
