Name: In-silico spectrum 46
Formula:
MW:
CAS#:
Comments: in-silico spectrum
Num peaks: 35
57.00 1079.60
411.00 4580.34
412.00 4836.73
413.00 5673.54
414.00 6105.84
415.00 5877.94
416.00 5554.79
417.00 5559.15
418.00 5199.96
419.00 4691.02
420.00 14377.67
421.00 18697.97
422.00 25931.56
423.00 28886.53
424.00 28498.43
425.00 27650.56
426.00 26244.68
427.00 24618.08
428.00 22826.90
431.00 1156.95
432.00 2039.01
433.00 2514.91
434.00 1993.77
435.00 2635.70
436.00 2119.34
437.00 2087.89
447.00 14919.65
448.00 13000.66
449.00 26682.45
450.00 40025.41
451.00 42010.26
452.00 41156.03
453.00 39534.93
454.00 37676.11
455.00 35242.56
