Name: In-silico spectrum 28
Formula:
MW:
CAS#:
Comments: in-silico spectrum
Num peaks: 45
26.00 1.24
27.00 76.76
28.00 16.98
29.00 133.81
39.00 57.38
40.00 8.46
41.00 289.28
42.00 76.94
43.00 711.05
44.00 19.39
53.00 15.48
54.00 6.50
55.00 134.12
56.00 157.17
57.00 781.24
58.00 35.95
65.00 0.69
69.00 55.60
70.00 123.50
71.00 508.62
72.00 25.53
84.00 82.55
85.00 340.61
86.00 20.25
98.00 26.81
99.00 76.37
100.00 6.80
112.00 29.02
113.00 49.83
114.00 3.43
126.00 22.98
127.00 39.96
128.00 3.44
140.00 13.35
141.00 28.17
142.00 3.13
154.00 11.33
155.00 22.97
156.00 2.32
169.00 5.66
170.00 0.38
182.00 7.04
183.00 13.59
210.00 4.25
211.00 6.23
