Name: In-silico spectrum 31
Formula:
MW:
CAS#:
Comments: in-silico spectrum
Num peaks: 44
26.00 1.73
27.00 90.28
28.00 19.00
29.00 147.66
39.00 63.63
40.00 10.00
41.00 291.43
42.00 77.01
43.00 719.19
44.00 20.21
51.00 2.11
53.00 17.41
54.00 3.25
55.00 113.50
56.00 155.54
57.00 769.04
58.00 34.90
65.00 1.30
69.00 38.35
70.00 125.25
71.00 496.91
72.00 24.99
84.00 84.97
85.00 331.56
86.00 19.60
98.00 22.93
99.00 65.70
100.00 5.80
112.00 27.05
113.00 41.71
114.00 2.60
126.00 21.69
127.00 34.54
128.00 3.40
140.00 10.70
141.00 23.34
142.00 2.48
154.00 9.20
155.00 19.10
156.00 1.69
182.00 5.05
183.00 10.00
210.00 0.92
211.00 2.07
