Name: In-silico spectrum 78
Formula:
MW:
CAS#:
Comments: in-silico spectrum
Num peaks: 24
27.00 58.03
29.00 120.68
39.00 81.32
41.00 407.55
42.00 75.98
43.00 882.36
54.00 3.71
55.00 252.54
56.00 160.50
57.00 1089.59
58.00 55.88
69.00 130.08
70.00 155.07
71.00 720.58
84.00 61.89
85.00 474.26
98.00 43.96
99.00 136.77
112.00 9.36
113.00 87.45
127.00 62.32
141.00 104.78
155.00 43.17
169.00 78.16
