Name: In-silico spectrum 77
Formula:
MW:
CAS#:
Comments: in-silico spectrum
Num peaks: 149
14.00 0.16
25.00 4.72
26.00 56.84
27.00 16.50
28.00 73.78
29.00 3.59
36.00 1.16
37.00 1.74
38.00 54.69
39.00 13.75
40.00 89.79
41.00 73.34
42.00 92.99
43.00 23.92
49.00 0.61
50.00 3.20
51.00 1.75
52.00 24.14
53.00 28.29
54.00 90.17
55.00 83.67
56.00 95.02
57.00 36.27
58.00 0.08
64.00 3.65
65.00 2.93
66.00 56.96
67.00 40.62
68.00 81.98
69.00 79.03
70.00 94.16
71.00 30.10
72.00 0.28
76.00 3.72
77.00 0.32
78.00 8.39
79.00 2.18
80.00 33.58
81.00 65.52
82.00 78.83
83.00 69.98
84.00 89.29
85.00 24.67
90.00 6.13
91.00 1.24
92.00 3.88
93.00 1.74
94.00 23.36
96.00 74.92
97.00 48.68
98.00 76.23
99.00 7.89
106.00 2.44
107.00 1.70
108.00 13.43
109.00 15.16
110.00 67.90
111.00 39.47
112.00 61.57
113.00 5.42
114.00 0.06
116.00 0.48
118.00 0.67
120.00 2.25
121.00 1.32
122.00 6.04
123.00 7.92
124.00 39.22
125.00 30.56
126.00 50.12
127.00 6.21
134.00 2.22
136.00 5.61
137.00 5.54
138.00 17.95
139.00 26.58
140.00 39.70
141.00 4.24
146.00 0.57
150.00 2.19
151.00 3.20
152.00 10.78
153.00 18.77
154.00 29.68
155.00 2.22
164.00 0.54
165.00 3.29
166.00 9.43
167.00 23.39
168.00 24.77
169.00 5.90
178.00 1.21
179.00 2.40
180.00 4.35
181.00 12.05
182.00 19.58
183.00 1.92
193.00 0.86
194.00 2.49
196.00 15.67
197.00 2.01
207.00 1.57
208.00 3.37
209.00 12.37
210.00 15.48
211.00 1.66
221.00 2.42
222.00 4.26
223.00 14.06
224.00 12.97
225.00 2.30
235.00 2.05
236.00 2.32
237.00 10.00
238.00 16.25
239.00 2.66
249.00 0.55
251.00 9.99
252.00 11.74
253.00 1.96
263.00 0.27
266.00 11.94
267.00 3.19
279.00 10.62
280.00 12.07
281.00 3.56
291.00 1.74
292.00 2.06
293.00 9.14
294.00 12.83
295.00 3.19
306.00 0.45
307.00 6.42
308.00 10.25
309.00 2.08
321.00 3.81
323.00 2.57
336.00 7.02
337.00 1.90
349.00 3.60
351.00 1.68
363.00 2.65
364.00 4.05
365.00 0.63
377.00 1.60
378.00 3.63
391.00 0.71
392.00 3.47
393.00 0.65
