Name: In-silico spectrum 78
Formula:
MW:
CAS#:
Comments: in-silico spectrum
Num peaks: 20
29.00 77.48
41.00 407.08
42.00 88.52
43.00 1004.78
55.00 302.29
56.00 331.83
57.00 1354.77
58.00 44.83
69.00 153.22
70.00 217.23
71.00 886.73
84.00 67.96
85.00 639.37
97.00 28.76
98.00 26.14
99.00 238.76
111.00 37.46
113.00 120.93
127.00 77.71
141.00 152.76
