Name: In-silico spectrum 31
Formula:
MW:
CAS#:
Comments: in-silico spectrum
Num peaks: 68
26.00 0.75
27.00 51.83
28.00 13.32
29.00 113.58
39.00 49.22
40.00 8.92
41.00 309.74
42.00 80.21
43.00 746.36
44.00 21.02
53.00 16.63
54.00 10.62
55.00 191.79
56.00 172.01
57.00 860.67
58.00 39.74
65.00 1.04
68.00 8.23
69.00 101.92
70.00 130.48
71.00 569.70
72.00 29.01
83.00 35.77
84.00 84.21
85.00 384.99
86.00 23.92
97.00 34.84
98.00 35.31
99.00 104.37
100.00 8.66
111.00 16.79
112.00 33.33
113.00 70.86
114.00 5.49
125.00 4.93
126.00 26.30
127.00 54.44
128.00 4.62
140.00 18.46
141.00 40.24
142.00 4.45
154.00 16.31
155.00 33.67
156.00 3.83
167.00 0.48
168.00 9.83
169.00 18.94
170.00 0.93
182.00 10.06
183.00 21.49
184.00 2.94
197.00 7.49
210.00 8.89
211.00 12.84
224.00 1.65
225.00 7.03
226.00 2.20
238.00 1.26
239.00 8.91
253.00 1.71
267.00 2.15
280.00 1.14
281.00 7.66
282.00 0.45
295.00 0.57
296.00 1.15
309.00 3.35
324.00 0.47
