Name: In-silico spectrum 78
Formula:
MW:
CAS#:
Comments: in-silico spectrum
Num peaks: 28
27.00 57.74
29.00 122.31
39.00 82.53
41.00 411.42
42.00 84.26
43.00 880.91
53.00 72.64
54.00 2.21
55.00 252.60
56.00 174.30
57.00 1115.20
58.00 55.18
69.00 133.67
70.00 161.06
71.00 743.33
84.00 59.02
85.00 475.77
97.00 7.36
98.00 48.06
99.00 138.13
111.00 1.04
112.00 16.71
113.00 89.58
126.00 25.07
127.00 66.03
141.00 107.20
155.00 46.45
169.00 78.19
