Name: In-silico spectrum 13
Formula:
MW:
CAS#:
Comments: in-silico spectrum
Num peaks: 35
57.00 891.52
411.00 3791.59
412.00 3992.55
413.00 4695.61
414.00 5044.34
415.00 4864.55
416.00 4610.91
417.00 4611.94
418.00 4310.50
419.00 3893.46
420.00 11841.70
421.00 15397.49
422.00 21320.26
423.00 23760.54
424.00 23435.58
425.00 22743.05
426.00 21591.08
427.00 20262.82
428.00 18780.02
431.00 953.36
432.00 1693.96
433.00 2083.46
434.00 1652.30
435.00 2189.23
436.00 1759.27
437.00 1724.14
447.00 12284.58
448.00 10708.40
449.00 21946.35
450.00 32921.11
451.00 34560.89
452.00 33862.88
453.00 32525.19
454.00 30991.64
455.00 28973.62
