Name: In-silico spectrum 78
Formula:
MW:
CAS#:
Comments: in-silico spectrum
Num peaks: 35
57.00 780.40
411.00 3323.54
412.00 3491.38
413.00 4114.07
414.00 4414.41
415.00 4261.94
416.00 4049.50
417.00 4047.81
418.00 3781.52
419.00 3419.38
420.00 10338.42
421.00 13440.76
422.00 18588.72
423.00 20723.28
424.00 20435.23
425.00 19835.60
426.00 18833.22
427.00 17681.32
428.00 16381.55
431.00 832.60
432.00 1488.25
433.00 1826.74
434.00 1448.97
435.00 1923.68
436.00 1544.59
437.00 1508.42
447.00 10722.41
448.00 9349.50
449.00 19139.85
450.00 28711.51
451.00 30146.17
452.00 29540.60
453.00 28371.29
454.00 27030.36
455.00 25259.69
