Name: In-silico spectrum 8
Formula:
MW:
CAS#:
Comments: in-silico spectrum
Num peaks: 20
29.00 76.47
41.00 411.59
42.00 89.53
43.00 1010.14
55.00 311.68
56.00 335.21
57.00 1365.94
58.00 45.18
69.00 160.42
70.00 218.97
71.00 894.22
84.00 68.50
85.00 644.68
97.00 34.78
98.00 27.32
99.00 241.88
111.00 41.38
113.00 122.91
127.00 78.86
141.00 154.64
