Name: In-silico spectrum 26
Formula:
MW:
CAS#:
Comments: in-silico spectrum
Num peaks: 30
27.00 65.45
29.00 108.84
39.00 63.38
41.00 396.43
42.00 118.10
43.00 797.90
54.00 44.56
55.00 262.75
56.00 241.07
57.00 1049.35
58.00 28.14
68.00 29.35
69.00 156.96
70.00 121.18
71.00 691.00
83.00 77.35
84.00 50.08
85.00 449.62
97.00 79.92
98.00 242.74
99.00 218.65
111.00 49.58
112.00 35.57
113.00 93.01
125.00 28.38
127.00 106.65
141.00 41.67
155.00 62.60
168.00 18.87
169.00 19.15
