Name: In-silico spectrum 8
Formula:
MW:
CAS#:
Comments: in-silico spectrum
Num peaks: 34
27.00 24.70
29.00 75.22
39.00 71.91
41.00 381.38
42.00 74.67
43.00 797.02
53.00 74.09
54.00 2.55
55.00 274.72
56.00 202.72
57.00 1151.33
58.00 55.79
68.00 7.47
69.00 180.12
70.00 184.25
71.00 800.86
83.00 39.91
84.00 56.47
85.00 510.52
97.00 48.42
98.00 50.80
99.00 169.11
111.00 26.77
112.00 19.84
113.00 118.38
125.00 1.48
126.00 25.25
127.00 82.45
139.00 14.93
140.00 13.43
141.00 123.74
155.00 60.88
168.00 8.29
169.00 98.17
