Name: In-silico spectrum 8
Formula:
MW:
CAS#:
Comments: in-silico spectrum
Num peaks: 35
57.00 848.06
411.00 3608.68
412.00 3797.24
413.00 4468.51
414.00 4798.59
415.00 4629.12
416.00 4391.08
417.00 4391.31
418.00 4103.39
419.00 3707.88
420.00 11256.47
421.00 14635.91
422.00 20258.22
423.00 22579.31
424.00 22268.85
425.00 21612.19
426.00 20518.29
427.00 19258.33
428.00 17847.13
431.00 906.18
432.00 1613.47
433.00 1983.29
434.00 1572.87
435.00 2085.22
436.00 1675.47
437.00 1639.89
447.00 11676.85
448.00 10179.42
449.00 20855.11
450.00 31284.24
451.00 32843.80
452.00 32181.55
453.00 30909.44
454.00 29451.19
455.00 27529.69
