Name: In-silico spectrum 66
Formula:
MW:
CAS#:
Comments: in-silico spectrum
Num peaks: 35
57.00 1153.06
411.00 4887.88
412.00 5165.44
413.00 6054.81
414.00 6519.54
415.00 6273.25
416.00 5923.20
417.00 5928.59
418.00 5547.19
419.00 5002.53
420.00 15364.16
421.00 19981.97
422.00 27724.07
423.00 30879.78
424.00 30466.95
425.00 29558.96
426.00 28054.24
427.00 26312.06
428.00 24400.43
431.00 1236.43
432.00 2173.50
433.00 2683.30
434.00 2126.97
435.00 2810.21
436.00 2259.79
437.00 2229.60
447.00 15944.43
448.00 13892.12
449.00 28523.76
450.00 42787.05
451.00 44906.95
452.00 43992.17
453.00 42260.59
454.00 40275.24
455.00 37679.34
