Name: In-silico spectrum 66
Formula:
MW:
CAS#:
Comments: in-silico spectrum
Num peaks: 21
29.00 76.17
41.00 445.86
42.00 96.76
43.00 1049.72
55.00 373.68
56.00 355.14
57.00 1428.57
58.00 46.95
69.00 206.91
70.00 231.32
71.00 933.58
83.00 41.72
84.00 74.11
85.00 672.75
97.00 73.49
98.00 34.37
99.00 257.20
111.00 67.11
113.00 132.40
127.00 83.68
141.00 164.19
