Name: In-silico spectrum 55
Formula:
MW:
CAS#:
Comments: in-silico spectrum
Num peaks: 21
29.00 76.78
41.00 441.81
42.00 95.86
43.00 1045.10
55.00 365.57
56.00 352.45
57.00 1419.86
58.00 46.64
69.00 200.81
70.00 229.83
71.00 927.82
83.00 33.82
84.00 73.50
85.00 668.61
97.00 68.36
98.00 33.38
99.00 254.81
111.00 63.77
113.00 130.86
127.00 82.86
141.00 162.76
