Name: In-silico spectrum 66
Formula:
MW:
CAS#:
Comments: in-silico spectrum
Num peaks: 32
29.00 36.57
39.00 48.70
41.00 331.00
42.00 75.99
43.00 707.07
54.00 18.10
55.00 323.98
56.00 189.75
57.00 1046.62
58.00 49.66
68.00 31.70
69.00 218.75
70.00 144.51
71.00 703.33
81.00 16.84
82.00 16.17
83.00 169.95
84.00 62.12
85.00 494.72
97.00 134.19
98.00 59.79
99.00 178.47
110.00 2.60
111.00 75.25
112.00 25.66
113.00 124.30
125.00 36.58
127.00 83.14
141.00 122.84
155.00 55.15
168.00 64.36
169.00 118.89
