Name: In-silico spectrum 55
Formula:
MW:
CAS#:
Comments: in-silico spectrum
Num peaks: 31
27.00 34.01
29.00 76.72
39.00 43.23
41.00 379.32
42.00 115.33
43.00 749.49
54.00 54.63
55.00 315.68
56.00 240.70
57.00 1043.80
58.00 28.77
68.00 44.43
69.00 202.03
70.00 112.54
71.00 682.90
82.00 25.25
83.00 157.93
84.00 47.99
85.00 447.81
97.00 138.85
98.00 252.22
99.00 234.79
111.00 81.83
112.00 43.39
113.00 108.91
125.00 50.19
127.00 116.32
141.00 51.57
155.00 67.48
168.00 36.01
169.00 32.43
