Name: In-silico spectrum 66
Formula:
MW:
CAS#:
Comments: in-silico spectrum
Num peaks: 19
29.00 11.29
41.00 152.26
42.00 32.45
43.00 379.32
55.00 177.31
56.00 146.05
57.00 702.01
69.00 110.23
70.00 79.23
71.00 492.01
83.00 108.50
84.00 23.29
85.00 307.08
97.00 75.21
99.00 109.04
111.00 32.45
113.00 92.62
127.00 62.80
141.00 20.22
