Name: In-silico spectrum 66
Formula:
MW:
CAS#:
Comments: in-silico spectrum
Num peaks: 31
27.00 19.62
29.00 60.88
39.00 34.57
41.00 370.37
42.00 113.65
43.00 732.67
54.00 57.55
55.00 331.09
56.00 241.38
57.00 1051.64
58.00 29.66
68.00 49.15
69.00 215.92
70.00 110.45
71.00 690.97
82.00 41.67
83.00 181.56
84.00 46.22
85.00 454.60
97.00 158.50
98.00 255.94
99.00 244.87
111.00 91.93
112.00 45.90
113.00 118.30
125.00 56.91
127.00 121.74
141.00 57.13
155.00 71.30
168.00 43.59
169.00 38.58
