Name: In-silico spectrum 55
Formula:
MW:
CAS#:
Comments: in-silico spectrum
Num peaks: 17
29.00 45.04
41.00 255.85
42.00 55.86
43.00 551.26
55.00 192.38
56.00 204.49
57.00 837.59
69.00 115.43
70.00 77.32
71.00 520.57
83.00 22.54
84.00 47.65
85.00 358.36
97.00 28.74
99.00 138.65
113.00 60.28
127.00 40.21
