Name: In-silico spectrum 66
Formula:
MW:
CAS#:
Comments: in-silico spectrum
Num peaks: 76
26.00 0.05
27.00 39.87
28.00 11.03
29.00 91.45
39.00 39.22
40.00 6.63
41.00 270.01
42.00 70.31
43.00 681.07
44.00 19.01
53.00 13.20
54.00 8.63
55.00 164.57
56.00 153.75
57.00 806.20
58.00 37.59
65.00 0.69
68.00 4.04
69.00 83.98
70.00 116.15
71.00 540.87
72.00 27.77
83.00 20.13
84.00 71.80
85.00 365.40
86.00 22.61
97.00 28.13
98.00 32.99
99.00 105.38
100.00 9.54
111.00 12.05
112.00 30.41
113.00 72.75
114.00 6.10
125.00 4.83
126.00 24.39
127.00 55.50
128.00 5.30
139.00 0.33
140.00 17.48
141.00 41.17
142.00 4.60
154.00 15.71
155.00 34.21
156.00 3.93
167.00 0.06
168.00 13.61
169.00 21.72
170.00 2.33
182.00 9.68
183.00 22.20
184.00 1.75
196.00 1.42
197.00 12.36
210.00 10.11
211.00 16.51
224.00 8.16
225.00 11.63
226.00 2.59
238.00 3.96
239.00 15.93
240.00 1.56
252.00 0.28
253.00 6.18
266.00 1.42
267.00 6.24
268.00 0.78
280.00 3.56
281.00 10.37
282.00 1.50
295.00 7.07
296.00 3.85
309.00 6.24
323.00 0.33
324.00 0.01
351.00 0.03
