Name: In-silico spectrum 55
Formula:
MW:
CAS#:
Comments: in-silico spectrum
Num peaks: 61
26.00 0.61
27.00 55.75
28.00 13.63
29.00 109.67
39.00 47.06
40.00 7.44
41.00 278.34
42.00 73.22
43.00 693.14
44.00 19.14
53.00 14.21
54.00 7.84
55.00 152.07
56.00 155.31
57.00 794.60
58.00 36.87
65.00 0.72
68.00 0.98
69.00 72.39
70.00 119.34
71.00 526.29
72.00 26.76
83.00 3.38
84.00 76.48
85.00 354.27
86.00 21.55
97.00 12.80
98.00 30.42
99.00 92.82
100.00 8.35
111.00 3.32
112.00 29.88
113.00 62.80
114.00 4.93
126.00 23.81
127.00 48.74
128.00 4.48
140.00 15.78
141.00 35.55
142.00 3.96
154.00 13.85
155.00 29.32
156.00 3.22
168.00 4.87
169.00 14.81
170.00 1.48
182.00 8.57
183.00 18.49
184.00 1.01
197.00 5.98
210.00 7.67
211.00 12.10
225.00 4.52
226.00 1.15
239.00 8.58
240.00 0.02
267.00 0.32
281.00 4.78
282.00 0.26
296.00 1.40
309.00 0.37
