Name: In-silico spectrum 45
Formula:
MW:
CAS#:
Comments: in-silico spectrum
Num peaks: 27
27.00 166.40
29.00 226.34
39.00 116.53
41.00 475.66
42.00 130.24
43.00 809.74
54.00 31.62
55.00 289.88
56.00 243.08
57.00 833.73
58.00 16.38
68.00 18.44
69.00 174.53
70.00 145.12
71.00 495.31
83.00 87.15
84.00 98.30
85.00 333.34
97.00 47.94
98.00 207.60
99.00 98.76
111.00 42.19
112.00 37.21
125.00 22.26
127.00 49.46
141.00 2.06
155.00 20.61
