Name: In-silico spectrum 45
Formula:
MW:
CAS#:
Comments: in-silico spectrum
Num peaks: 43
15.00 2.35
26.00 5.08
27.00 148.95
28.00 28.48
29.00 219.91
30.00 3.89
39.00 93.11
40.00 13.39
41.00 348.77
42.00 93.98
43.00 787.21
44.00 21.18
51.00 6.10
52.00 1.30
53.00 22.72
54.00 3.92
55.00 114.74
56.00 175.03
57.00 747.32
58.00 32.94
65.00 1.89
69.00 33.83
70.00 146.39
71.00 453.33
72.00 22.13
84.00 111.09
85.00 298.74
86.00 17.57
98.00 18.87
99.00 24.44
100.00 0.80
112.00 29.30
113.00 7.95
126.00 22.24
127.00 11.57
128.00 0.81
131.00 5.29
140.00 8.16
141.00 6.05
142.00 0.86
154.00 4.61
155.00 2.65
182.00 2.49
