Name: In-silico spectrum 45
Formula:
MW:
CAS#:
Comments: in-silico spectrum
Num peaks: 33
15.00 13.90
26.00 4.76
27.00 174.77
28.00 32.86
29.00 242.79
30.00 3.02
38.00 2.98
39.00 105.48
40.00 15.32
41.00 332.07
42.00 91.06
43.00 751.37
44.00 20.36
50.00 3.03
51.00 10.53
53.00 24.03
55.00 56.71
56.00 161.24
57.00 665.39
58.00 28.63
65.00 2.30
70.00 140.66
71.00 388.29
72.00 18.16
84.00 109.90
85.00 251.85
86.00 13.06
98.00 9.45
112.00 23.59
115.00 2.77
126.00 18.35
131.00 15.94
140.00 2.26
