Name: In-silico spectrum 45
Formula:
MW:
CAS#:
Comments: in-silico spectrum
Num peaks: 26
27.00 128.91
29.00 194.43
39.00 122.87
41.00 438.57
42.00 91.16
43.00 963.17
53.00 86.17
54.00 5.19
55.00 219.58
56.00 216.53
57.00 935.10
58.00 48.43
68.00 14.74
69.00 187.05
70.00 179.24
71.00 530.30
84.00 130.32
85.00 462.52
98.00 51.99
99.00 95.24
112.00 12.52
113.00 32.64
126.00 13.45
127.00 34.35
141.00 81.94
169.00 7.28
