Name: In-silico spectrum 45
Formula:
MW:
CAS#:
Comments: in-silico spectrum
Num peaks: 35
57.00 622.83
411.00 2655.78
412.00 2782.69
413.00 3285.82
414.00 3521.17
415.00 3403.69
416.00 3242.00
417.00 3238.49
418.00 3023.88
419.00 2737.40
420.00 8227.07
421.00 10694.56
422.00 14772.93
423.00 16474.80
424.00 16242.05
425.00 15768.05
426.00 14974.22
427.00 14063.41
428.00 13024.76
431.00 662.05
432.00 1192.07
433.00 1459.88
434.00 1158.26
435.00 1540.79
436.00 1236.14
437.00 1202.70
447.00 8531.25
448.00 7441.09
449.00 15215.02
450.00 22824.39
451.00 23968.90
452.00 23489.77
453.00 22558.25
454.00 21489.18
455.00 20073.06
