Name: In-silico spectrum 70
Formula:
MW:
CAS#:
Comments: in-silico spectrum
Num peaks: 97
27.00 10.49
28.00 6.21
29.00 56.44
39.00 24.79
40.00 6.22
41.00 252.64
42.00 63.76
43.00 646.73
44.00 19.03
53.00 12.61
54.00 9.46
55.00 190.08
56.00 149.44
57.00 812.75
58.00 37.92
65.00 1.47
67.00 8.82
68.00 10.22
69.00 108.94
70.00 109.78
71.00 557.46
72.00 29.25
83.00 55.68
84.00 62.70
85.00 379.06
86.00 24.35
91.00 1.86
96.00 8.35
97.00 59.03
98.00 37.37
99.00 126.76
100.00 11.61
110.00 2.15
111.00 29.90
112.00 30.80
113.00 89.83
114.00 8.18
124.00 2.49
125.00 16.44
126.00 25.26
127.00 67.06
128.00 7.24
139.00 6.04
140.00 20.65
141.00 51.08
142.00 5.73
153.00 2.83
154.00 19.01
155.00 42.57
156.00 5.03
167.00 2.85
168.00 29.53
169.00 33.83
170.00 3.66
182.00 11.40
183.00 28.54
184.00 3.00
196.00 17.72
197.00 23.74
198.00 0.97
210.00 14.45
211.00 24.28
212.00 0.69
224.00 25.51
225.00 24.19
226.00 4.84
238.00 12.40
239.00 29.21
240.00 4.37
252.00 13.04
253.00 18.74
254.00 0.28
266.00 9.97
267.00 16.98
268.00 3.13
280.00 12.58
281.00 20.41
282.00 3.58
294.00 9.91
295.00 22.85
296.00 8.24
308.00 7.91
309.00 16.86
310.00 2.64
322.00 1.68
323.00 11.17
324.00 3.17
336.00 5.32
337.00 10.76
338.00 3.20
350.00 4.13
351.00 14.37
352.00 3.52
379.00 0.87
393.00 1.37
394.00 0.21
421.00 1.21
