Name: In-silico spectrum 9
Formula:
MW:
CAS#:
Comments: in-silico spectrum
Num peaks: 35
57.00 852.81
411.00 3628.57
412.00 3818.09
413.00 4493.04
414.00 4825.02
415.00 4654.62
416.00 4415.26
417.00 4415.43
418.00 4125.78
419.00 3728.35
420.00 11318.46
421.00 14716.41
422.00 20369.73
423.00 22703.63
424.00 22391.41
425.00 21731.19
426.00 20631.14
427.00 19364.20
428.00 17945.24
431.00 911.09
432.00 1622.42
433.00 1994.26
434.00 1581.57
435.00 2096.73
436.00 1684.67
437.00 1648.74
447.00 11741.21
448.00 10235.42
449.00 20969.99
450.00 31456.41
451.00 33024.59
452.00 32358.62
453.00 31079.65
454.00 29613.26
455.00 27681.22
