Name: In-silico spectrum 9
Formula:
MW:
CAS#:
Comments: in-silico spectrum
Num peaks: 30
27.00 60.75
29.00 102.42
39.00 59.37
41.00 385.73
42.00 114.47
43.00 764.62
54.00 44.82
55.00 267.33
56.00 233.86
57.00 1011.24
58.00 26.86
68.00 31.04
69.00 163.30
70.00 117.91
71.00 664.94
83.00 91.55
84.00 49.44
85.00 433.30
97.00 87.08
98.00 236.42
99.00 211.73
111.00 54.03
112.00 36.04
113.00 90.68
125.00 31.79
127.00 103.73
141.00 41.84
155.00 60.84
168.00 19.81
169.00 19.87
