Name: In-silico spectrum 9
Formula:
MW:
CAS#:
Comments: in-silico spectrum
Num peaks: 45
26.00 1.41
27.00 82.29
28.00 17.57
29.00 137.65
39.00 59.29
40.00 9.55
41.00 282.31
42.00 74.20
43.00 708.47
44.00 20.12
51.00 1.57
53.00 16.72
54.00 2.66
55.00 111.47
56.00 152.32
57.00 769.33
58.00 34.99
65.00 1.24
69.00 37.92
70.00 122.08
71.00 501.43
72.00 25.40
84.00 81.39
85.00 335.22
86.00 20.03
98.00 23.18
99.00 71.20
100.00 6.31
112.00 26.57
113.00 46.26
114.00 3.20
126.00 21.48
127.00 37.62
128.00 3.85
140.00 10.91
141.00 25.76
142.00 2.71
154.00 9.72
155.00 21.39
156.00 2.02
169.00 2.44
182.00 5.14
183.00 11.54
210.00 1.60
211.00 4.01
