Name: In-silico spectrum 21
Formula:
MW:
CAS#:
Comments: in-silico spectrum
Num peaks: 31
27.00 55.85
29.00 102.20
39.00 55.22
41.00 398.15
42.00 118.89
43.00 765.11
54.00 51.25
55.00 310.44
56.00 240.50
57.00 1014.84
58.00 26.46
68.00 40.65
69.00 195.85
70.00 116.70
71.00 655.40
82.00 17.83
83.00 145.52
84.00 54.97
85.00 429.21
97.00 121.91
98.00 246.38
99.00 213.51
111.00 74.06
112.00 42.30
113.00 90.41
125.00 45.29
127.00 105.63
141.00 43.48
155.00 59.99
168.00 23.23
169.00 20.97
