Name: In-silico spectrum 21
Formula:
MW:
CAS#:
Comments: in-silico spectrum
Num peaks: 21
29.00 77.71
41.00 439.27
42.00 95.23
43.00 1038.20
55.00 362.10
56.00 349.20
57.00 1406.79
58.00 46.19
69.00 198.55
70.00 228.19
71.00 918.59
83.00 32.60
84.00 73.34
85.00 662.06
97.00 67.00
98.00 32.85
99.00 251.66
111.00 62.88
113.00 129.01
127.00 81.60
141.00 160.86
