Name: In-silico spectrum 57
Formula:
MW:
CAS#:
Comments: in-silico spectrum
Num peaks: 73
26.00 0.60
27.00 47.82
28.00 13.23
29.00 111.60
30.00 0.19
39.00 48.50
40.00 8.20
41.00 319.65
42.00 83.51
43.00 748.17
44.00 20.52
53.00 15.99
54.00 14.91
55.00 218.72
56.00 177.98
57.00 869.16
58.00 40.26
65.00 0.76
67.00 7.82
68.00 14.37
69.00 123.07
70.00 133.37
71.00 573.38
72.00 29.00
83.00 66.08
84.00 86.62
85.00 387.87
86.00 24.15
97.00 55.64
98.00 38.98
99.00 108.16
100.00 9.10
111.00 29.18
112.00 35.90
113.00 73.29
114.00 5.57
125.00 12.10
126.00 27.85
127.00 55.82
128.00 4.14
139.00 3.65
140.00 20.93
141.00 41.97
142.00 4.58
154.00 17.92
155.00 34.58
156.00 3.81
167.00 2.62
168.00 13.27
169.00 21.42
170.00 1.34
182.00 11.98
183.00 22.81
184.00 3.27
197.00 9.54
210.00 11.60
211.00 14.63
224.00 5.84
225.00 9.87
226.00 3.14
238.00 3.49
239.00 10.69
253.00 3.78
266.00 1.74
267.00 4.36
268.00 0.05
280.00 4.23
281.00 9.94
282.00 1.01
295.00 4.12
296.00 2.16
309.00 5.08
324.00 0.93
