Name: In-silico spectrum 21
Formula:
MW:
CAS#:
Comments: in-silico spectrum
Num peaks: 46
26.00 1.49
27.00 79.93
28.00 17.64
29.00 137.43
39.00 59.13
40.00 8.84
41.00 292.24
42.00 77.85
43.00 709.56
44.00 19.34
51.00 0.33
53.00 16.06
54.00 6.91
55.00 136.77
56.00 158.12
57.00 774.19
58.00 35.57
65.00 0.93
69.00 57.94
70.00 124.58
71.00 501.70
72.00 25.14
84.00 83.92
85.00 335.68
86.00 19.86
98.00 26.77
99.00 73.29
100.00 6.51
112.00 29.18
113.00 47.33
114.00 3.08
126.00 23.06
127.00 38.21
128.00 3.27
140.00 13.45
141.00 26.94
142.00 2.99
154.00 11.11
155.00 21.70
156.00 2.07
169.00 4.18
170.00 0.16
182.00 6.98
183.00 12.77
210.00 4.12
211.00 5.33
