Name: In-silico spectrum 21
Formula:
MW:
CAS#:
Comments: in-silico spectrum
Num peaks: 35
57.00 971.22
411.00 4126.02
412.00 4351.49
413.00 5110.31
414.00 5495.13
415.00 5294.28
416.00 5010.03
417.00 5012.83
418.00 4687.08
419.00 4230.74
420.00 12922.27
421.00 16803.94
422.00 23288.26
423.00 25947.02
424.00 25595.57
425.00 24836.23
426.00 23575.76
427.00 22119.36
428.00 20505.91
431.00 1039.85
432.00 1840.00
433.00 2266.28
434.00 1796.83
435.00 2377.92
436.00 1911.55
437.00 1878.63
447.00 13407.76
448.00 11685.25
449.00 23966.99
450.00 35952.29
451.00 37738.05
452.00 36972.96
453.00 35515.09
454.00 33842.81
455.00 31649.19
