Name: In-silico spectrum 57
Formula:
MW:
CAS#:
Comments: in-silico spectrum
Num peaks: 34
27.00 18.43
29.00 74.98
39.00 60.55
41.00 365.34
42.00 85.75
43.00 781.06
53.00 62.38
54.00 14.91
55.00 294.13
56.00 175.02
57.00 1049.42
58.00 51.65
68.00 19.68
69.00 171.86
70.00 135.27
71.00 689.58
83.00 114.52
84.00 58.44
85.00 468.02
97.00 86.64
98.00 56.68
99.00 155.42
111.00 43.51
112.00 25.51
113.00 104.97
125.00 13.70
126.00 26.72
127.00 72.47
139.00 13.15
140.00 8.78
141.00 112.87
155.00 48.79
168.00 23.47
169.00 100.98
