Name: In-silico spectrum 84
Formula:
MW:
CAS#:
Comments: in-silico spectrum
Num peaks: 34
27.00 20.97
29.00 75.83
39.00 70.39
41.00 397.26
42.00 83.15
43.00 828.68
53.00 73.73
54.00 9.03
55.00 309.72
56.00 197.58
57.00 1163.66
58.00 56.47
68.00 10.96
69.00 188.90
70.00 172.24
71.00 795.16
83.00 85.91
84.00 60.38
85.00 522.15
97.00 72.26
98.00 57.15
99.00 173.23
111.00 38.08
112.00 23.65
113.00 120.64
125.00 7.83
126.00 27.91
127.00 84.14
139.00 16.11
140.00 11.69
141.00 127.16
155.00 59.73
168.00 17.87
169.00 105.43
