Name: In-silico spectrum 84
Formula:
MW:
CAS#:
Comments: in-silico spectrum
Num peaks: 30
27.00 21.04
29.00 78.03
39.00 68.29
41.00 397.21
42.00 79.05
43.00 821.17
54.00 10.36
55.00 306.87
56.00 190.71
57.00 1139.14
58.00 55.76
68.00 14.32
69.00 188.21
70.00 170.33
71.00 774.21
83.00 82.28
84.00 63.12
85.00 513.53
97.00 60.91
98.00 54.89
99.00 167.45
111.00 36.06
112.00 20.18
113.00 117.53
125.00 3.16
127.00 79.21
141.00 124.51
155.00 54.74
168.00 12.19
169.00 106.07
