Name: In-silico spectrum 84
Formula:
MW:
CAS#:
Comments: in-silico spectrum
Num peaks: 45
26.00 1.50
27.00 80.75
28.00 17.62
29.00 137.36
39.00 59.24
40.00 9.59
41.00 290.10
42.00 76.32
43.00 715.21
44.00 20.16
51.00 1.14
53.00 17.03
54.00 4.52
55.00 127.26
56.00 156.64
57.00 780.36
58.00 35.58
65.00 1.36
69.00 50.19
70.00 124.66
71.00 507.94
72.00 25.70
84.00 83.12
85.00 339.79
86.00 20.28
98.00 25.31
99.00 73.98
100.00 6.57
112.00 28.02
113.00 48.12
114.00 3.29
126.00 22.47
127.00 38.88
128.00 3.86
140.00 12.31
141.00 27.10
142.00 2.93
154.00 10.64
155.00 22.19
156.00 2.10
169.00 3.74
182.00 6.05
183.00 12.52
210.00 2.88
211.00 4.99
