Name: In-silico spectrum 68
Formula:
MW:
CAS#:
Comments: in-silico spectrum
Num peaks: 29
27.00 100.34
29.00 154.06
39.00 82.05
41.00 438.78
42.00 129.56
43.00 843.49
54.00 43.11
55.00 280.09
56.00 251.67
57.00 1029.48
58.00 25.61
68.00 27.50
69.00 163.67
70.00 128.86
71.00 655.77
83.00 85.85
84.00 67.06
85.00 426.64
97.00 74.02
98.00 244.67
99.00 188.59
111.00 47.49
112.00 39.20
113.00 64.63
125.00 28.11
127.00 92.36
141.00 29.49
155.00 50.82
169.00 0.17
