Name: In-silico spectrum 68
Formula:
MW:
CAS#:
Comments: in-silico spectrum
Num peaks: 35
57.00 860.53
411.00 3661.80
412.00 3855.41
413.00 4534.68
414.00 4871.08
415.00 4697.67
416.00 4453.74
417.00 4454.69
418.00 4162.83
419.00 3760.61
420.00 11433.63
421.00 14866.52
422.00 20583.95
423.00 22940.06
424.00 22625.51
425.00 21957.22
426.00 20845.33
427.00 19563.63
428.00 18131.41
431.00 919.92
432.00 1636.61
433.00 2012.19
434.00 1595.74
435.00 2114.53
436.00 1699.31
437.00 1664.86
447.00 11861.56
448.00 10340.08
449.00 21188.72
450.00 31785.50
451.00 33367.94
452.00 32694.11
453.00 31402.88
454.00 29921.66
455.00 27972.61
