Name: In-silico spectrum 68
Formula:
MW:
CAS#:
Comments: in-silico spectrum
Num peaks: 20
29.00 79.70
41.00 428.89
42.00 93.08
43.00 1037.56
55.00 334.11
56.00 345.03
57.00 1400.08
58.00 46.11
69.00 176.07
70.00 225.87
71.00 915.05
84.00 71.62
85.00 659.68
97.00 46.71
98.00 29.58
99.00 248.04
111.00 49.79
113.00 126.14
127.00 80.49
141.00 158.73
