Name: In-silico spectrum 68
Formula:
MW:
CAS#:
Comments: in-silico spectrum
Num peaks: 30
27.00 49.55
29.00 120.38
39.00 74.11
41.00 399.93
42.00 94.00
43.00 873.37
53.00 65.01
54.00 9.95
55.00 257.55
56.00 170.13
57.00 1086.39
58.00 55.46
68.00 13.04
69.00 134.33
70.00 131.34
71.00 693.02
83.00 39.21
84.00 58.36
85.00 457.77
97.00 37.76
98.00 53.42
99.00 137.04
111.00 14.29
112.00 23.85
113.00 86.52
126.00 27.31
127.00 63.35
141.00 103.51
155.00 41.26
169.00 86.35
