Name: In-silico spectrum 68
Formula:
MW:
CAS#:
Comments: in-silico spectrum
Num peaks: 28
27.00 48.26
29.00 120.29
39.00 70.49
41.00 398.07
42.00 93.22
43.00 870.60
54.00 11.65
55.00 254.64
56.00 164.24
57.00 1068.86
58.00 54.30
68.00 13.63
69.00 131.60
70.00 127.83
71.00 676.08
83.00 37.22
84.00 59.42
85.00 451.47
97.00 27.27
98.00 53.27
99.00 133.82
111.00 10.90
112.00 21.83
113.00 83.95
127.00 59.62
141.00 101.27
155.00 36.42
169.00 87.90
