Name: In-silico spectrum 63
Formula:
MW:
CAS#:
Comments: in-silico spectrum
Num peaks: 26
29.00 99.54
41.00 629.70
42.00 120.10
43.00 828.37
55.00 898.65
56.00 358.70
57.00 1067.00
58.00 23.57
67.00 182.64
68.00 84.75
69.00 626.32
70.00 233.64
71.00 624.62
81.00 31.62
82.00 399.24
83.00 734.88
84.00 110.58
85.00 441.50
97.00 482.59
98.00 84.97
99.00 182.43
111.00 322.87
113.00 87.40
125.00 87.30
127.00 33.39
141.00 104.79
