Name: In-silico spectrum 40
Formula:
MW:
CAS#:
Comments: in-silico spectrum
Num peaks: 69
15.00 8.16
26.00 9.64
27.00 140.24
28.00 40.44
29.00 225.09
30.00 4.28
39.00 107.89
40.00 27.74
41.00 539.58
42.00 118.19
43.00 624.16
44.00 25.23
51.00 12.65
52.00 1.33
53.00 52.05
54.00 52.95
55.00 626.39
56.00 246.81
57.00 545.42
58.00 22.66
65.00 14.79
66.00 4.11
67.00 167.79
68.00 103.85
69.00 456.45
70.00 199.75
71.00 248.93
72.00 12.81
77.00 17.79
79.00 6.00
81.00 66.43
82.00 283.09
83.00 522.32
84.00 151.76
85.00 156.51
86.00 8.68
91.00 11.94
95.00 40.49
96.00 52.40
97.00 309.37
98.00 61.93
109.00 4.76
110.00 22.57
111.00 182.97
112.00 45.67
115.00 9.44
124.00 17.18
125.00 84.79
126.00 28.57
128.00 2.31
129.00 3.21
131.00 30.17
132.00 4.50
138.00 11.16
139.00 42.76
140.00 29.83
152.00 10.14
153.00 29.28
154.00 13.60
165.00 1.68
166.00 8.88
167.00 23.10
180.00 5.34
181.00 7.34
182.00 9.43
195.00 3.34
209.00 1.92
210.00 7.43
223.00 2.28
