Name: In-silico spectrum 7
Formula:
MW:
CAS#:
Comments: in-silico spectrum
Num peaks: 90
26.00 5.99
27.00 81.50
28.00 31.30
29.00 175.14
30.00 1.86
39.00 85.66
40.00 23.10
41.00 586.53
42.00 126.10
43.00 696.52
44.00 26.40
51.00 2.83
53.00 46.85
54.00 69.88
55.00 770.91
56.00 276.36
57.00 726.81
58.00 32.12
65.00 11.89
66.00 8.07
67.00 213.36
68.00 132.32
69.00 562.28
70.00 211.04
71.00 383.17
72.00 19.32
77.00 12.17
79.00 19.81
80.00 0.72
81.00 107.95
82.00 360.66
83.00 663.29
84.00 151.28
85.00 250.94
86.00 15.05
91.00 18.39
95.00 79.55
96.00 91.14
97.00 417.21
98.00 83.25
99.00 57.58
100.00 4.94
109.00 39.32
110.00 42.38
111.00 243.41
112.00 55.89
113.00 29.70
114.00 0.06
123.00 2.24
124.00 25.92
125.00 120.77
126.00 35.83
127.00 17.58
128.00 3.09
131.00 5.19
137.00 14.62
138.00 18.14
139.00 59.19
140.00 40.05
141.00 17.26
152.00 15.45
153.00 42.00
154.00 23.55
155.00 7.96
165.00 0.01
166.00 12.45
167.00 29.47
168.00 0.76
180.00 11.13
181.00 17.60
182.00 18.34
183.00 5.91
195.00 10.62
208.00 2.19
209.00 9.59
210.00 19.69
217.00 2.94
222.00 10.62
223.00 17.55
236.00 6.28
237.00 6.01
238.00 3.63
250.00 0.93
251.00 6.54
266.00 10.76
280.00 13.53
293.00 0.69
294.00 5.74
321.00 0.55
420.00 3.01
