Name: In-silico spectrum 2
Formula:
MW:
CAS#:
Comments: in-silico spectrum
Num peaks: 140
26.00 6.26
27.00 70.33
28.00 30.38
29.00 160.14
39.00 81.71
40.00 28.23
41.00 610.47
42.00 119.26
43.00 597.98
44.00 28.26
51.00 5.97
53.00 55.28
54.00 76.22
55.00 888.13
56.00 274.47
57.00 610.81
58.00 26.39
65.00 15.81
66.00 12.17
67.00 268.77
68.00 159.14
69.00 662.61
70.00 210.26
71.00 289.94
72.00 14.48
77.00 24.47
78.00 0.36
79.00 58.52
80.00 20.23
81.00 163.77
82.00 450.28
83.00 805.44
84.00 149.68
85.00 186.66
86.00 11.14
91.00 31.54
92.00 5.78
93.00 41.30
94.00 17.70
95.00 137.44
96.00 120.17
97.00 502.83
98.00 88.89
99.00 43.62
100.00 4.05
105.00 13.48
107.00 33.85
108.00 26.72
109.00 105.51
110.00 64.63
111.00 292.75
112.00 52.82
113.00 19.20
115.00 1.27
119.00 3.79
121.00 31.81
122.00 20.34
123.00 56.10
124.00 39.57
125.00 145.80
126.00 32.89
127.00 7.97
128.00 5.12
129.00 2.29
131.00 15.23
132.00 1.66
133.00 1.31
135.00 32.36
136.00 13.75
137.00 55.97
138.00 28.81
139.00 70.30
140.00 40.08
141.00 10.07
147.00 4.92
148.00 6.29
149.00 61.16
150.00 23.16
151.00 28.07
152.00 23.92
153.00 54.03
154.00 22.80
155.00 2.05
160.00 4.08
162.00 11.47
163.00 12.03
165.00 10.41
166.00 12.88
167.00 32.93
168.00 1.57
175.00 2.86
177.00 10.73
179.00 11.86
180.00 18.90
181.00 19.91
182.00 15.54
183.00 0.30
190.00 8.83
191.00 7.98
194.00 2.81
195.00 12.68
203.00 12.42
204.00 21.35
205.00 12.99
206.00 5.75
207.00 5.27
208.00 4.56
209.00 11.22
210.00 17.65
217.00 63.44
218.00 46.05
219.00 12.68
222.00 15.17
223.00 24.11
232.00 13.44
233.00 16.31
234.00 8.22
236.00 9.32
237.00 8.51
238.00 5.04
250.00 0.65
251.00 8.46
257.00 31.78
258.00 10.81
259.00 21.89
260.00 4.22
266.00 14.36
280.00 16.25
285.00 11.91
292.00 6.20
293.00 7.85
294.00 11.06
300.00 15.03
321.00 3.14
368.00 2.04
397.00 17.86
400.00 5.18
412.00 53.33
413.00 18.85
420.00 6.20
