Name: In-silico spectrum 40
Formula:
MW:
CAS#:
Comments: in-silico spectrum
Num peaks: 31
27.00 170.93
29.00 278.07
39.00 186.27
41.00 808.69
42.00 181.47
43.00 629.54
53.00 104.07
54.00 76.65
55.00 981.50
56.00 595.88
57.00 671.43
58.00 28.61
67.00 132.65
68.00 227.39
69.00 1011.69
70.00 504.50
71.00 320.17
81.00 104.80
82.00 12.25
83.00 605.95
84.00 273.85
85.00 224.95
95.00 82.48
97.00 550.07
98.00 151.39
99.00 20.53
110.00 45.56
111.00 365.36
112.00 91.93
125.00 169.92
141.00 60.85
