Name: In-silico spectrum 7
Formula:
MW:
CAS#:
Comments: in-silico spectrum
Num peaks: 27
27.00 41.12
29.00 181.86
39.00 90.37
41.00 605.14
42.00 126.63
43.00 599.70
54.00 52.23
55.00 756.76
56.00 314.57
57.00 615.46
67.00 214.04
68.00 190.79
69.00 625.88
70.00 204.24
71.00 253.12
81.00 93.99
82.00 227.13
83.00 600.75
84.00 126.87
85.00 170.02
95.00 86.14
96.00 127.59
97.00 435.38
98.00 73.06
99.00 23.29
111.00 230.82
125.00 117.69
