Name: In-silico spectrum 43
Formula:
MW:
CAS#:
Comments: in-silico spectrum
Num peaks: 68
15.00 3.56
26.00 6.63
27.00 117.07
28.00 31.87
29.00 190.59
30.00 0.12
39.00 90.73
40.00 25.24
41.00 464.24
42.00 102.37
43.00 590.96
44.00 22.96
50.00 1.61
51.00 10.78
53.00 43.96
54.00 40.89
55.00 513.39
56.00 212.84
57.00 545.51
58.00 22.18
65.00 12.39
66.00 3.37
67.00 130.42
68.00 78.35
69.00 366.63
70.00 171.56
71.00 272.18
72.00 14.05
77.00 15.81
79.00 2.58
81.00 51.71
82.00 212.58
83.00 405.30
84.00 129.08
85.00 175.20
86.00 9.58
91.00 9.94
95.00 28.87
96.00 38.61
97.00 239.13
98.00 51.94
99.00 9.82
100.00 0.92
110.00 17.89
111.00 140.94
112.00 38.89
115.00 5.17
124.00 14.01
125.00 64.10
126.00 25.66
128.00 2.29
129.00 3.76
131.00 22.20
132.00 3.67
138.00 8.55
139.00 32.61
140.00 25.40
152.00 8.14
153.00 21.54
154.00 12.92
165.00 0.37
166.00 5.26
167.00 17.41
180.00 3.26
181.00 3.87
182.00 9.30
210.00 6.13
223.00 0.43
