Name: In-silico spectrum 19
Formula:
MW:
CAS#:
Comments: in-silico spectrum
Num peaks: 31
27.00 91.99
29.00 183.89
39.00 97.31
41.00 729.78
42.00 158.23
43.00 730.94
54.00 119.63
55.00 981.98
56.00 333.47
57.00 846.94
58.00 21.94
67.00 295.78
68.00 191.81
69.00 705.25
70.00 187.91
71.00 399.27
81.00 179.85
82.00 494.39
83.00 868.91
84.00 142.63
85.00 276.11
95.00 130.16
97.00 540.91
98.00 293.90
99.00 135.02
110.00 58.81
111.00 313.45
112.00 66.81
125.00 169.48
127.00 31.51
141.00 2.39
