Name: In-silico spectrum 82
Formula:
MW:
CAS#:
Comments: in-silico spectrum
Num peaks: 24
27.00 36.43
29.00 167.64
39.00 23.48
41.00 442.52
42.00 85.01
43.00 454.60
55.00 633.44
56.00 238.02
57.00 560.70
67.00 144.90
68.00 52.08
69.00 471.80
70.00 155.27
71.00 266.91
82.00 351.74
83.00 607.29
84.00 113.18
85.00 153.92
96.00 66.49
97.00 394.82
98.00 14.63
99.00 20.55
111.00 266.04
125.00 103.61
