Name: In-silico spectrum 47
Formula:
MW:
CAS#:
Comments: in-silico spectrum
Num peaks: 35
57.00 522.86
411.00 2235.11
412.00 2327.34
413.00 2762.16
414.00 2951.25
415.00 2860.64
416.00 2741.69
417.00 2733.65
418.00 2550.92
419.00 2315.22
420.00 6854.02
421.00 8907.54
422.00 12266.50
423.00 13690.47
424.00 13489.68
425.00 13103.63
426.00 12446.61
427.00 11701.21
428.00 10828.05
431.00 552.01
432.00 1008.61
433.00 1229.11
434.00 976.06
435.00 1304.61
436.00 1044.32
437.00 1006.83
447.00 7102.72
448.00 6200.05
449.00 12641.95
450.00 18965.79
451.00 19923.46
452.00 19532.24
453.00 18753.09
454.00 17858.85
455.00 16663.81
