Name: In-silico spectrum 19
Formula:
MW:
CAS#:
Comments: in-silico spectrum
Num peaks: 31
29.00 68.15
39.00 98.97
41.00 785.76
42.00 127.22
43.00 798.38
53.00 69.09
54.00 87.54
55.00 976.42
56.00 263.79
57.00 769.38
58.00 32.66
67.00 350.06
68.00 276.80
69.00 851.87
70.00 207.11
71.00 386.29
81.00 278.01
82.00 312.12
83.00 771.60
84.00 101.65
85.00 248.11
95.00 299.52
97.00 578.76
98.00 104.33
99.00 53.98
110.00 88.45
111.00 333.37
112.00 44.09
113.00 30.29
125.00 174.91
141.00 55.43
