Name: In-silico spectrum 7
Formula:
MW:
CAS#:
Comments: in-silico spectrum
Num peaks: 25
29.00 96.73
41.00 639.78
42.00 124.10
43.00 900.34
55.00 885.85
56.00 378.38
57.00 1178.39
58.00 28.47
67.00 150.41
68.00 63.49
69.00 612.06
70.00 245.31
71.00 704.55
82.00 358.71
83.00 694.00
84.00 111.09
85.00 500.91
97.00 463.53
98.00 84.42
99.00 206.83
111.00 311.50
113.00 101.99
125.00 70.56
127.00 44.12
141.00 121.35
