Name: In-silico spectrum 2
Formula:
MW:
CAS#:
Comments: in-silico spectrum
Num peaks: 35
57.00 1177.18
411.00 4987.84
412.00 5270.79
413.00 6178.72
414.00 6652.96
415.00 6401.82
416.00 6043.93
417.00 6049.36
418.00 5660.61
419.00 5104.47
420.00 15678.61
421.00 20391.53
422.00 28292.92
423.00 31514.01
424.00 31092.91
425.00 30165.92
426.00 28630.04
427.00 26851.54
428.00 24900.97
431.00 1261.81
432.00 2217.56
433.00 2737.90
434.00 2170.11
435.00 2867.45
436.00 2306.00
437.00 2274.81
447.00 16270.76
448.00 14176.65
449.00 29108.72
450.00 43665.38
451.00 45829.18
452.00 44896.21
453.00 43128.75
454.00 41102.17
455.00 38452.89
