Name: In-silico spectrum 43
Formula:
MW:
CAS#:
Comments: in-silico spectrum
Num peaks: 32
27.00 71.43
29.00 158.50
39.00 138.02
41.00 783.29
42.00 147.01
43.00 646.66
53.00 86.77
54.00 76.28
55.00 975.57
56.00 438.61
57.00 724.31
58.00 30.85
67.00 244.62
68.00 241.28
69.00 937.00
70.00 377.12
71.00 388.03
81.00 208.61
82.00 166.77
83.00 689.47
84.00 173.95
85.00 225.82
95.00 214.81
97.00 558.44
98.00 126.30
99.00 48.36
110.00 71.57
111.00 349.10
112.00 66.13
113.00 29.23
125.00 170.70
141.00 67.44
