Name: In-silico spectrum 82
Formula:
MW:
CAS#:
Comments: in-silico spectrum
Num peaks: 32
27.00 76.81
29.00 202.36
39.00 127.90
41.00 799.46
42.00 162.05
43.00 805.08
53.00 66.77
54.00 94.95
55.00 1058.96
56.00 424.02
57.00 923.60
58.00 41.73
67.00 247.76
68.00 215.63
69.00 838.55
70.00 323.61
71.00 463.96
81.00 156.17
82.00 372.85
83.00 863.59
84.00 177.57
85.00 300.44
95.00 110.22
97.00 596.76
98.00 132.52
99.00 83.33
110.00 53.73
111.00 355.44
112.00 69.50
113.00 43.89
125.00 171.27
141.00 68.50
