Name: In-silico spectrum 2
Formula:
MW:
CAS#:
Comments: in-silico spectrum
Num peaks: 31
29.00 33.49
39.00 75.41
41.00 683.03
42.00 91.89
43.00 660.21
53.00 57.52
54.00 86.66
55.00 1000.70
56.00 123.76
57.00 558.74
58.00 17.75
67.00 426.31
68.00 211.58
69.00 696.47
70.00 117.16
71.00 266.69
81.00 290.97
82.00 573.25
83.00 925.37
84.00 72.14
85.00 142.87
95.00 331.41
97.00 554.04
98.00 64.75
99.00 16.56
110.00 80.37
111.00 300.90
112.00 19.43
113.00 9.56
125.00 145.09
141.00 11.35
