Name: In-silico spectrum 43
Formula:
MW:
CAS#:
Comments: in-silico spectrum
Num peaks: 82
26.00 7.46
27.00 97.97
28.00 32.88
29.00 179.75
30.00 2.24
39.00 88.38
40.00 25.31
41.00 525.92
42.00 112.62
43.00 624.80
44.00 25.63
51.00 8.33
53.00 48.69
54.00 55.29
55.00 656.65
56.00 245.64
57.00 615.01
58.00 26.33
65.00 14.03
66.00 5.44
67.00 179.43
68.00 109.78
69.00 480.63
70.00 192.87
71.00 313.88
72.00 16.19
77.00 17.51
79.00 19.90
80.00 0.09
81.00 88.80
82.00 297.85
83.00 554.45
84.00 139.77
85.00 203.62
86.00 12.05
91.00 17.57
95.00 63.70
96.00 69.47
97.00 342.21
98.00 68.40
99.00 32.82
100.00 2.30
109.00 31.01
110.00 33.94
111.00 200.79
112.00 46.67
113.00 12.45
115.00 3.65
123.00 0.88
124.00 22.94
125.00 97.42
126.00 30.21
127.00 6.03
128.00 4.14
129.00 1.99
131.00 17.90
132.00 2.03
137.00 11.24
138.00 15.16
139.00 48.05
140.00 33.42
141.00 8.15
152.00 13.55
153.00 34.96
154.00 18.17
155.00 0.23
165.00 3.73
166.00 9.36
167.00 24.64
180.00 8.43
181.00 10.56
182.00 12.42
195.00 6.31
209.00 4.84
210.00 12.68
217.00 0.07
222.00 3.58
223.00 9.18
236.00 1.89
251.00 1.25
266.00 1.35
280.00 3.27
