Name: In-silico spectrum 19
Formula:
MW:
CAS#:
Comments: in-silico spectrum
Num peaks: 27
27.00 21.27
29.00 161.17
39.00 73.88
41.00 577.70
42.00 117.39
43.00 587.08
54.00 47.99
55.00 730.84
56.00 293.30
57.00 612.04
67.00 214.66
68.00 181.92
69.00 594.96
70.00 186.96
71.00 259.90
81.00 102.72
82.00 235.55
83.00 589.17
84.00 115.06
85.00 176.77
95.00 93.23
96.00 134.82
97.00 422.68
98.00 67.90
99.00 29.50
111.00 223.60
125.00 113.39
