Name: In-silico spectrum 47
Formula:
MW:
CAS#:
Comments: in-silico spectrum
Num peaks: 29
27.00 184.39
29.00 262.73
39.00 137.78
41.00 671.76
42.00 140.43
43.00 635.76
54.00 78.66
55.00 785.38
56.00 283.94
57.00 529.27
58.00 10.61
67.00 232.76
68.00 138.02
69.00 568.97
70.00 192.87
71.00 192.90
81.00 128.01
82.00 357.83
83.00 646.99
84.00 156.99
85.00 143.19
95.00 96.06
97.00 370.12
98.00 202.61
99.00 6.18
110.00 35.32
111.00 225.42
112.00 49.18
125.00 120.24
