Name: In-silico spectrum 47
Formula:
MW:
CAS#:
Comments: in-silico spectrum
Num peaks: 66
15.00 17.20
26.00 10.94
27.00 169.65
28.00 44.35
29.00 251.53
30.00 5.40
38.00 2.49
39.00 118.56
40.00 28.76
41.00 516.22
42.00 115.14
43.00 603.09
44.00 24.11
50.00 3.38
51.00 16.27
52.00 3.41
53.00 52.27
54.00 44.76
55.00 545.85
56.00 232.07
57.00 472.30
58.00 18.92
65.00 14.95
66.00 1.91
67.00 140.75
68.00 87.59
69.00 394.15
70.00 193.38
71.00 194.11
72.00 9.85
77.00 17.85
81.00 39.82
82.00 238.34
83.00 441.00
84.00 152.08
85.00 117.81
86.00 6.06
91.00 6.74
95.00 14.80
96.00 30.77
97.00 248.25
98.00 50.83
110.00 10.07
111.00 148.02
112.00 40.85
115.00 14.82
124.00 10.95
125.00 64.16
126.00 25.12
128.00 1.37
129.00 5.27
131.00 39.76
132.00 7.26
138.00 6.66
139.00 33.02
140.00 23.98
152.00 6.34
153.00 20.97
154.00 8.61
165.00 0.27
166.00 6.79
167.00 19.03
180.00 1.78
181.00 2.37
182.00 5.46
210.00 1.36
