Name: In-silico spectrum 82
Formula:
MW:
CAS#:
Comments: in-silico spectrum
Num peaks: 86
26.00 5.29
27.00 77.85
28.00 30.09
29.00 172.03
30.00 2.59
39.00 82.93
40.00 20.15
41.00 569.75
42.00 126.98
43.00 724.43
44.00 25.06
51.00 0.27
53.00 41.80
54.00 67.94
55.00 726.07
56.00 274.71
57.00 771.70
58.00 34.70
65.00 9.59
66.00 6.81
67.00 192.72
68.00 123.06
69.00 524.53
70.00 208.21
71.00 422.13
72.00 21.35
77.00 6.43
79.00 5.82
81.00 88.67
82.00 328.22
83.00 611.88
84.00 148.99
85.00 278.46
86.00 16.81
91.00 13.05
95.00 59.86
96.00 82.24
97.00 388.23
98.00 81.93
99.00 68.07
100.00 5.87
109.00 17.02
110.00 35.00
111.00 226.33
112.00 57.60
113.00 37.89
114.00 0.79
124.00 20.82
125.00 112.68
126.00 37.12
127.00 24.16
128.00 2.09
137.00 0.26
138.00 14.33
139.00 55.90
140.00 40.62
141.00 22.38
142.00 0.34
152.00 12.29
153.00 38.04
154.00 24.57
155.00 12.32
166.00 12.40
167.00 28.14
168.00 4.33
180.00 8.19
181.00 17.45
182.00 20.03
183.00 9.72
195.00 10.56
208.00 1.85
209.00 9.52
210.00 21.86
222.00 10.14
223.00 16.51
224.00 1.79
236.00 5.78
237.00 6.02
238.00 4.96
250.00 1.63
251.00 6.56
266.00 11.25
280.00 14.78
294.00 6.96
321.00 0.38
420.00 3.23
