Name: In-silico spectrum 40
Formula:
MW:
CAS#:
Comments: in-silico spectrum
Num peaks: 35
57.00 653.46
411.00 2785.31
412.00 2918.17
413.00 3445.39
414.00 3693.03
415.00 3569.44
416.00 3399.86
417.00 3395.68
418.00 3171.32
419.00 2871.17
420.00 8627.36
421.00 11215.35
422.00 15492.31
423.00 17276.56
424.00 17032.41
425.00 16536.31
426.00 15702.37
427.00 14747.32
428.00 13658.55
431.00 694.72
432.00 1249.63
433.00 1530.90
434.00 1214.43
435.00 1616.03
436.00 1296.56
437.00 1260.84
447.00 8945.99
448.00 7802.63
449.00 15955.68
450.00 23935.63
451.00 25135.46
452.00 24633.85
453.00 23656.63
454.00 22535.10
455.00 21049.68
