Name: In-silico spectrum 7
Formula:
MW:
CAS#:
Comments: in-silico spectrum
Num peaks: 71
26.00 5.37
27.00 98.86
28.00 29.97
29.00 179.70
39.00 84.84
40.00 21.71
41.00 499.05
42.00 110.81
43.00 638.08
44.00 22.29
51.00 5.40
53.00 40.17
54.00 51.84
55.00 591.18
56.00 233.30
57.00 631.43
58.00 27.24
65.00 9.95
66.00 4.91
67.00 152.20
68.00 94.74
69.00 422.62
70.00 181.13
71.00 329.24
72.00 16.75
77.00 9.28
81.00 62.79
82.00 256.51
83.00 482.82
84.00 134.65
85.00 215.32
86.00 12.45
91.00 9.19
95.00 37.38
96.00 54.83
97.00 295.31
98.00 63.36
99.00 33.43
100.00 3.20
109.00 1.04
110.00 22.63
111.00 173.18
112.00 46.14
113.00 12.34
124.00 15.00
125.00 82.42
126.00 29.70
127.00 7.60
128.00 1.51
131.00 9.53
138.00 9.84
139.00 41.48
140.00 31.16
141.00 8.81
152.00 8.58
153.00 27.40
154.00 17.57
155.00 0.82
166.00 8.38
167.00 22.13
180.00 4.82
181.00 9.93
182.00 14.29
183.00 1.51
195.00 3.99
209.00 4.85
210.00 12.40
222.00 3.72
223.00 8.14
251.00 0.09
280.00 1.73
