Name: In-silico spectrum 4
Formula:
MW:
CAS#:
Comments: in-silico spectrum
Num peaks: 35
57.00 897.20
411.00 3817.59
412.00 4014.28
413.00 4726.43
414.00 5074.23
415.00 4896.67
416.00 4647.46
417.00 4646.55
418.00 4341.81
419.00 3924.10
420.00 11895.43
421.00 15467.23
422.00 21402.51
423.00 23857.37
424.00 23527.98
425.00 22835.03
426.00 21679.70
427.00 20349.92
428.00 18857.04
431.00 957.77
432.00 1707.49
433.00 2097.82
434.00 1663.83
435.00 2207.16
436.00 1773.21
437.00 1733.69
447.00 12339.08
448.00 10757.57
449.00 22033.91
450.00 33053.73
451.00 34703.60
452.00 34005.57
453.00 32660.06
454.00 31117.40
455.00 29084.29
