Name: In-silico spectrum 40
Formula:
MW:
CAS#:
Comments: in-silico spectrum
Num peaks: 23
27.00 183.75
29.00 275.05
39.00 176.68
41.00 578.26
42.00 146.88
43.00 490.94
54.00 37.13
55.00 654.52
56.00 393.96
57.00 465.06
67.00 75.07
68.00 143.68
69.00 650.98
70.00 286.21
71.00 164.72
83.00 420.63
84.00 179.49
85.00 94.04
96.00 2.53
97.00 376.61
98.00 84.98
111.00 207.12
125.00 98.32
