Name: In-silico spectrum 47
Formula:
MW:
CAS#:
Comments: in-silico spectrum
Num peaks: 23
27.00 201.43
29.00 275.61
39.00 194.32
41.00 548.49
42.00 141.75
43.00 455.48
54.00 44.21
55.00 627.40
56.00 349.35
57.00 384.56
67.00 93.34
68.00 108.18
69.00 578.57
70.00 258.01
71.00 107.68
82.00 59.76
83.00 418.27
84.00 174.39
85.00 63.29
97.00 314.10
98.00 62.27
111.00 167.00
125.00 70.72
