Name: In-silico spectrum 2
Formula:
MW:
CAS#:
Comments: in-silico spectrum
Num peaks: 130
26.00 5.31
27.00 72.27
28.00 26.99
29.00 148.27
39.00 74.33
40.00 27.38
41.00 525.36
42.00 103.96
43.00 521.69
44.00 23.96
51.00 7.68
53.00 48.97
54.00 62.01
55.00 746.88
56.00 235.02
57.00 518.96
58.00 21.12
65.00 14.65
66.00 9.42
67.00 220.79
68.00 129.75
69.00 555.88
70.00 180.99
71.00 241.78
72.00 12.68
77.00 21.67
79.00 45.06
80.00 12.55
81.00 130.00
82.00 372.05
83.00 671.34
84.00 132.45
85.00 156.99
86.00 9.57
91.00 25.35
92.00 3.14
93.00 28.57
94.00 9.95
95.00 106.93
96.00 94.54
97.00 415.03
98.00 74.38
99.00 31.17
100.00 3.09
105.00 6.89
107.00 23.04
108.00 16.94
109.00 81.21
110.00 49.66
111.00 243.28
112.00 45.40
113.00 10.88
115.00 0.40
121.00 21.25
122.00 11.64
123.00 39.71
124.00 31.19
125.00 119.06
126.00 27.88
127.00 3.83
128.00 3.77
129.00 2.06
131.00 16.72
132.00 3.03
135.00 22.29
136.00 6.90
137.00 42.79
138.00 22.03
139.00 59.00
140.00 34.93
141.00 7.20
147.00 0.04
148.00 0.87
149.00 45.18
150.00 15.78
151.00 17.33
152.00 19.81
153.00 46.13
154.00 19.70
160.00 0.37
162.00 4.85
163.00 6.33
165.00 8.26
166.00 10.94
167.00 30.07
177.00 5.25
179.00 6.73
180.00 13.84
181.00 15.53
182.00 14.15
183.00 0.33
190.00 3.88
191.00 3.49
194.00 2.39
195.00 9.16
203.00 5.72
204.00 14.63
205.00 8.01
206.00 3.74
208.00 2.32
209.00 8.72
210.00 14.50
217.00 48.01
218.00 33.47
219.00 6.94
222.00 11.83
223.00 18.61
232.00 7.12
233.00 10.29
234.00 2.29
236.00 1.78
237.00 3.88
238.00 1.51
251.00 5.27
257.00 22.77
258.00 6.07
259.00 14.64
260.00 0.86
266.00 9.79
280.00 11.60
285.00 5.71
292.00 1.56
293.00 2.71
294.00 2.39
300.00 9.07
397.00 11.23
400.00 5.83
412.00 39.60
413.00 11.86
420.00 6.54
