Name: In-silico spectrum 43
Formula:
MW:
CAS#:
Comments: in-silico spectrum
Num peaks: 35
27.00 70.12
29.00 153.93
39.00 138.33
41.00 786.76
42.00 151.32
43.00 646.44
53.00 127.67
54.00 70.38
55.00 980.63
56.00 438.66
57.00 718.04
58.00 30.72
67.00 255.61
68.00 250.53
69.00 951.37
70.00 376.25
71.00 386.92
81.00 211.40
82.00 171.70
83.00 698.19
84.00 180.29
85.00 228.40
95.00 211.84
97.00 572.99
98.00 132.32
99.00 54.48
110.00 69.97
111.00 353.04
112.00 68.21
113.00 29.79
125.00 172.95
126.00 54.73
139.00 100.29
140.00 74.83
141.00 72.39
