Name: In-silico spectrum 19
Formula:
MW:
CAS#:
Comments: in-silico spectrum
Num peaks: 34
29.00 49.68
39.00 93.61
41.00 787.12
42.00 125.72
43.00 810.83
53.00 106.72
54.00 83.63
55.00 968.98
56.00 248.12
57.00 769.72
58.00 34.58
67.00 358.64
68.00 283.99
69.00 855.16
70.00 189.65
71.00 388.11
81.00 282.20
82.00 314.08
83.00 764.54
84.00 98.06
85.00 249.78
95.00 304.02
97.00 585.98
98.00 105.39
99.00 66.44
110.00 89.24
111.00 329.19
112.00 42.94
113.00 37.41
125.00 172.47
126.00 37.54
139.00 79.67
140.00 9.48
141.00 47.81
