Name: In-silico spectrum 4
Formula:
MW:
CAS#:
Comments: in-silico spectrum
Num peaks: 29
27.00 132.22
29.00 213.93
39.00 114.19
41.00 693.60
42.00 138.97
43.00 639.61
54.00 94.19
55.00 889.82
56.00 294.75
57.00 615.03
58.00 15.49
67.00 291.84
68.00 171.68
69.00 655.19
70.00 184.49
71.00 243.83
81.00 188.16
82.00 433.89
83.00 769.78
84.00 144.71
85.00 177.18
95.00 157.77
97.00 462.17
98.00 235.48
99.00 54.87
110.00 57.47
111.00 270.74
112.00 53.33
125.00 144.40
