Name: In-silico spectrum 82
Formula:
MW:
CAS#:
Comments: in-silico spectrum
Num peaks: 34
27.00 85.62
29.00 178.67
39.00 92.72
41.00 718.59
42.00 164.85
43.00 762.09
54.00 123.44
55.00 961.17
56.00 343.81
57.00 928.59
58.00 22.58
67.00 262.88
68.00 183.49
69.00 681.45
70.00 191.04
71.00 465.18
81.00 148.67
82.00 477.24
83.00 844.80
84.00 141.76
85.00 317.16
95.00 87.19
97.00 531.57
98.00 307.31
99.00 160.44
110.00 51.17
111.00 309.28
112.00 70.89
113.00 3.95
125.00 170.66
127.00 49.37
141.00 14.41
155.00 0.29
168.00 5.77
