Name: In-silico spectrum 19
Formula:
MW:
CAS#:
Comments: in-silico spectrum
Num peaks: 94
26.00 5.35
27.00 71.01
28.00 28.93
29.00 161.86
30.00 1.31
39.00 79.75
40.00 22.25
41.00 569.77
42.00 122.17
43.00 689.32
44.00 26.22
51.00 1.96
53.00 45.15
54.00 67.84
55.00 753.82
56.00 270.35
57.00 735.83
58.00 32.70
65.00 11.52
66.00 7.88
67.00 208.13
68.00 128.95
69.00 549.74
70.00 205.17
71.00 396.68
72.00 19.99
77.00 11.98
79.00 21.90
80.00 2.13
81.00 108.64
82.00 349.79
83.00 646.84
84.00 145.41
85.00 261.22
86.00 15.86
91.00 19.04
95.00 81.04
96.00 91.34
97.00 409.87
98.00 82.38
99.00 65.85
100.00 5.73
109.00 42.54
110.00 43.30
111.00 238.80
112.00 54.82
113.00 36.41
114.00 0.89
123.00 5.92
124.00 26.36
125.00 119.22
126.00 35.52
127.00 22.47
128.00 3.61
131.00 2.38
137.00 16.05
138.00 18.32
139.00 58.25
140.00 39.86
141.00 20.97
152.00 15.67
153.00 41.81
154.00 24.07
155.00 11.48
165.00 0.48
166.00 11.97
167.00 28.76
168.00 5.89
180.00 11.17
181.00 17.38
182.00 18.39
183.00 8.19
195.00 10.66
208.00 2.46
209.00 9.62
210.00 20.28
217.00 6.28
222.00 11.09
223.00 18.04
224.00 3.40
236.00 6.44
237.00 6.29
238.00 5.97
250.00 1.14
251.00 6.44
266.00 12.69
267.00 0.77
280.00 15.57
281.00 0.11
293.00 1.42
294.00 9.23
295.00 0.47
321.00 1.04
420.00 3.37
