Name: In-silico spectrum 19
Formula:
MW:
CAS#:
Comments: in-silico spectrum
Num peaks: 25
29.00 95.02
41.00 634.37
42.00 123.36
43.00 902.95
55.00 874.01
56.00 377.87
57.00 1185.86
58.00 29.05
67.00 143.13
68.00 59.02
69.00 602.90
70.00 244.76
71.00 711.47
82.00 347.87
83.00 679.49
84.00 109.90
85.00 506.26
97.00 455.01
98.00 83.44
99.00 209.10
111.00 305.96
113.00 103.59
125.00 66.92
127.00 45.68
141.00 123.06
