Name: In-silico spectrum 4
Formula:
MW:
CAS#:
Comments: in-silico spectrum
Num peaks: 90
26.00 7.42
27.00 89.77
28.00 32.20
29.00 171.07
30.00 1.57
39.00 85.87
40.00 26.62
41.00 537.17
42.00 112.06
43.00 601.85
44.00 26.37
51.00 8.66
53.00 51.33
54.00 58.94
55.00 704.87
56.00 249.08
57.00 597.89
58.00 25.45
65.00 15.33
66.00 7.03
67.00 199.81
68.00 120.43
69.00 521.15
70.00 194.73
71.00 299.33
72.00 15.49
77.00 20.90
79.00 32.54
80.00 6.65
81.00 108.78
82.00 331.60
83.00 610.03
84.00 140.07
85.00 194.01
86.00 11.64
91.00 22.45
93.00 6.03
95.00 84.04
96.00 81.78
97.00 378.69
98.00 72.57
99.00 34.83
100.00 2.60
109.00 53.48
110.00 42.39
111.00 222.19
112.00 47.07
113.00 13.87
115.00 4.74
123.00 18.66
124.00 27.98
125.00 109.16
126.00 30.47
127.00 6.28
128.00 4.95
129.00 3.44
131.00 19.15
132.00 3.16
137.00 24.71
138.00 18.92
139.00 53.78
140.00 35.13
141.00 8.72
149.00 15.03
151.00 3.84
152.00 16.78
153.00 40.46
154.00 19.25
155.00 0.62
165.00 6.90
166.00 10.32
167.00 27.09
180.00 11.34
181.00 12.53
182.00 12.81
195.00 8.13
208.00 0.77
209.00 6.42
210.00 13.94
217.00 19.75
218.00 6.87
222.00 6.48
223.00 12.98
236.00 3.74
237.00 1.88
251.00 2.80
257.00 4.87
266.00 4.61
280.00 6.39
412.00 13.76
