Name: In-silico spectrum 40
Formula:
MW:
CAS#:
Comments: in-silico spectrum
Num peaks: 66
15.00 13.27
26.00 8.32
27.00 154.15
28.00 39.01
29.00 232.18
30.00 2.46
38.00 2.67
39.00 109.73
40.00 28.25
41.00 485.22
42.00 108.33
43.00 580.12
44.00 22.65
50.00 5.15
51.00 15.12
52.00 2.05
53.00 48.17
54.00 41.51
55.00 508.94
56.00 216.12
57.00 469.49
58.00 18.07
65.00 13.33
66.00 3.28
67.00 129.48
68.00 77.98
69.00 362.89
70.00 179.09
71.00 200.48
72.00 10.23
77.00 17.06
81.00 39.04
82.00 215.76
83.00 401.09
84.00 141.38
85.00 123.71
86.00 5.61
91.00 5.95
95.00 15.51
96.00 28.15
97.00 224.55
98.00 47.60
110.00 11.32
111.00 133.94
112.00 38.23
115.00 10.92
124.00 10.49
125.00 57.39
126.00 24.18
128.00 0.04
129.00 6.50
131.00 34.13
132.00 5.87
138.00 6.29
139.00 30.39
140.00 22.76
145.00 0.41
152.00 6.10
153.00 17.87
154.00 8.67
166.00 5.18
167.00 16.69
180.00 1.70
181.00 2.27
182.00 6.89
210.00 1.19
