Name: In-silico spectrum 7
Formula:
MW:
CAS#:
Comments: in-silico spectrum
Num peaks: 30
27.00 113.81
29.00 210.14
39.00 110.55
41.00 759.47
42.00 166.34
43.00 760.68
54.00 120.82
55.00 1000.52
56.00 345.48
57.00 850.89
58.00 21.42
67.00 296.30
68.00 192.28
69.00 715.01
70.00 198.24
71.00 391.54
81.00 173.05
82.00 499.14
83.00 878.72
84.00 153.95
85.00 271.61
95.00 122.32
97.00 540.97
98.00 296.58
99.00 122.83
110.00 55.33
111.00 315.39
112.00 68.61
125.00 170.09
127.00 25.80
