Name: In-silico spectrum 15
Formula:
MW:
CAS#:
Comments: in-silico spectrum
Num peaks: 43
26.00 4.68
27.00 131.99
28.00 26.67
29.00 201.80
30.00 3.34
39.00 86.46
40.00 13.43
41.00 349.71
42.00 93.26
43.00 774.01
44.00 21.26
51.00 4.87
52.00 0.35
53.00 23.04
54.00 7.22
55.00 148.57
56.00 178.53
57.00 760.10
58.00 33.76
65.00 2.44
69.00 63.40
70.00 146.38
71.00 466.24
72.00 22.91
84.00 108.48
85.00 308.79
86.00 18.29
98.00 23.78
99.00 37.82
100.00 2.05
112.00 31.20
113.00 18.32
126.00 23.53
127.00 18.20
128.00 1.49
131.00 2.59
140.00 11.42
141.00 11.90
142.00 1.28
154.00 7.45
155.00 7.40
182.00 4.44
183.00 3.54
