Name: In-silico spectrum 3
Formula:
MW:
CAS#:
Comments: in-silico spectrum
Num peaks: 46
26.00 4.29
27.00 123.36
28.00 25.65
29.00 194.47
30.00 3.08
39.00 83.43
40.00 13.14
41.00 357.54
42.00 94.77
43.00 788.69
44.00 21.78
51.00 3.67
53.00 22.93
54.00 9.33
55.00 169.61
56.00 183.88
57.00 792.63
58.00 35.33
65.00 2.34
68.00 2.18
69.00 79.20
70.00 149.00
71.00 490.81
72.00 24.26
83.00 2.92
84.00 108.73
85.00 325.92
86.00 19.37
98.00 27.12
99.00 48.11
100.00 3.01
112.00 32.95
113.00 26.10
114.00 0.27
126.00 24.89
127.00 23.60
128.00 1.91
140.00 13.38
141.00 16.29
142.00 1.74
154.00 9.15
155.00 11.09
156.00 0.22
182.00 5.79
183.00 6.32
210.00 0.32
