Name: In-silico spectrum 27
Formula:
MW:
CAS#:
Comments: in-silico spectrum
Num peaks: 42
15.00 7.68
26.00 3.58
27.00 140.35
28.00 26.90
29.00 200.69
30.00 0.88
38.00 0.11
39.00 87.37
40.00 13.86
41.00 300.98
42.00 80.82
43.00 722.31
44.00 20.66
50.00 1.39
51.00 8.42
53.00 21.96
55.00 56.82
56.00 151.52
57.00 689.00
58.00 30.02
65.00 2.47
70.00 130.03
71.00 423.07
72.00 20.62
84.00 95.93
85.00 277.83
86.00 15.41
98.00 11.76
99.00 20.15
100.00 1.46
112.00 22.46
113.00 6.33
115.00 0.50
126.00 18.13
127.00 10.35
128.00 1.26
131.00 9.21
140.00 3.64
141.00 3.30
142.00 0.13
154.00 2.08
155.00 1.73
