Name: In-silico spectrum 71
Formula:
MW:
CAS#:
Comments: in-silico spectrum
Num peaks: 35
57.00 663.61
411.00 2828.78
412.00 2958.05
413.00 3497.51
414.00 3746.92
415.00 3623.52
416.00 3457.52
417.00 3451.45
418.00 3221.36
419.00 2919.63
420.00 8740.28
421.00 11359.87
422.00 15681.41
423.00 17490.19
424.00 17239.06
425.00 16741.06
426.00 15897.60
427.00 14934.58
428.00 13829.40
431.00 704.38
432.00 1271.44
433.00 1555.54
434.00 1233.78
435.00 1643.36
436.00 1317.65
437.00 1279.41
447.00 9062.95
448.00 7905.29
449.00 16152.84
450.00 24230.52
451.00 25446.76
452.00 24939.42
453.00 23949.34
454.00 22814.14
455.00 21305.04
