Name: In-silico spectrum 71
Formula:
MW:
CAS#:
Comments: in-silico spectrum
Num peaks: 31
29.00 45.44
39.00 80.23
41.00 582.57
42.00 93.88
43.00 555.51
53.00 59.73
54.00 51.53
55.00 662.80
56.00 316.89
57.00 706.94
58.00 32.12
67.00 190.55
68.00 224.17
69.00 731.25
70.00 246.83
71.00 418.79
81.00 236.73
82.00 23.63
83.00 428.32
84.00 84.50
85.00 244.46
95.00 230.76
97.00 431.95
98.00 95.03
99.00 72.34
110.00 83.62
111.00 258.57
112.00 49.23
113.00 45.56
125.00 162.68
141.00 88.86
