Name: In-silico spectrum 71
Formula:
MW:
CAS#:
Comments: in-silico spectrum
Num peaks: 63
15.00 4.68
26.00 5.59
27.00 113.48
28.00 27.27
29.00 174.02
30.00 0.79
39.00 81.05
40.00 20.35
41.00 357.48
42.00 85.68
43.00 582.91
44.00 20.39
50.00 1.77
51.00 9.89
53.00 34.06
54.00 19.85
55.00 294.29
56.00 172.59
57.00 553.06
58.00 23.08
65.00 9.37
67.00 52.64
68.00 33.22
69.00 195.47
70.00 141.89
71.00 309.33
72.00 15.73
77.00 10.44
81.00 0.39
82.00 72.58
83.00 173.83
84.00 105.26
85.00 202.09
86.00 11.24
91.00 1.25
96.00 1.38
97.00 96.95
98.00 33.33
99.00 16.95
100.00 1.46
111.00 57.14
112.00 30.32
113.00 3.13
115.00 5.16
124.00 3.36
125.00 22.25
126.00 22.37
127.00 4.24
128.00 2.60
129.00 3.80
131.00 17.27
132.00 3.10
139.00 11.94
140.00 17.61
141.00 4.10
145.00 1.05
152.00 0.68
153.00 4.81
154.00 9.02
166.00 0.37
167.00 7.03
182.00 5.67
210.00 2.51
