Name: In-silico spectrum 39
Formula:
MW:
CAS#:
Comments: in-silico spectrum
Num peaks: 35
57.00 572.66
411.00 2446.56
412.00 2554.96
413.00 3024.92
414.00 3236.56
415.00 3132.78
416.00 2994.75
417.00 2988.65
418.00 2789.40
419.00 2528.99
420.00 7536.84
421.00 9795.32
422.00 13508.24
423.00 15070.04
424.00 14852.15
425.00 14424.31
426.00 13699.52
427.00 12873.25
428.00 11916.84
431.00 606.67
432.00 1101.74
433.00 1345.25
434.00 1067.62
435.00 1424.24
436.00 1141.01
437.00 1104.82
447.00 7812.56
448.00 6817.65
449.00 13917.38
450.00 20878.94
451.00 21928.58
452.00 21494.28
453.00 20639.56
454.00 19658.17
455.00 18351.66
