Name: In-silico spectrum 39
Formula:
MW:
CAS#:
Comments: in-silico spectrum
Num peaks: 20
29.00 80.96
41.00 390.91
42.00 84.90
43.00 987.81
55.00 268.22
56.00 321.25
57.00 1319.88
58.00 43.71
69.00 127.30
70.00 211.48
71.00 863.88
84.00 65.65
85.00 622.96
97.00 7.46
98.00 22.02
99.00 228.91
111.00 23.70
113.00 114.36
127.00 74.28
141.00 146.72
