Name: In-silico spectrum 27
Formula:
MW:
CAS#:
Comments: in-silico spectrum
Num peaks: 44
26.00 3.61
27.00 108.50
28.00 22.19
29.00 172.36
30.00 1.83
39.00 74.16
40.00 12.98
41.00 321.73
42.00 84.17
43.00 753.59
44.00 21.65
51.00 3.86
52.00 0.68
53.00 21.86
54.00 3.31
55.00 132.09
56.00 168.30
57.00 775.16
58.00 34.80
65.00 2.56
69.00 53.23
70.00 136.65
71.00 490.94
72.00 24.64
84.00 96.65
85.00 327.29
86.00 19.69
98.00 23.26
99.00 55.35
100.00 3.67
112.00 28.77
113.00 32.95
114.00 1.22
126.00 22.53
127.00 28.40
128.00 3.01
140.00 11.08
141.00 19.34
142.00 2.02
154.00 8.57
155.00 15.01
156.00 1.03
182.00 4.02
183.00 7.80
