Name: In-silico spectrum 39
Formula:
MW:
CAS#:
Comments: in-silico spectrum
Num peaks: 36
15.00 11.11
26.00 4.23
27.00 166.72
28.00 31.22
29.00 234.93
30.00 2.45
38.00 1.57
39.00 101.39
40.00 14.19
41.00 331.42
42.00 90.61
43.00 764.53
44.00 20.49
50.00 1.91
51.00 9.02
53.00 22.44
55.00 60.04
56.00 162.00
57.00 694.63
58.00 30.18
65.00 1.53
70.00 139.98
71.00 412.37
72.00 19.37
84.00 107.73
85.00 268.37
86.00 14.15
98.00 10.66
99.00 2.11
112.00 24.09
115.00 0.65
126.00 18.77
127.00 0.16
131.00 12.15
140.00 2.64
154.00 0.32
