Name: In-silico spectrum 3
Formula:
MW:
CAS#:
Comments: in-silico spectrum
Num peaks: 147
26.00 2.84
27.00 59.37
28.00 15.49
29.00 121.32
30.00 1.63
37.00 1.35
38.00 2.16
40.00 12.14
41.00 356.30
42.00 90.09
43.00 407.25
44.00 21.90
51.00 3.63
52.00 2.26
53.00 24.32
54.00 28.01
55.00 324.64
56.00 194.13
57.00 409.31
58.00 38.72
65.00 4.60
66.00 3.09
67.00 65.94
68.00 41.96
69.00 224.86
70.00 146.25
71.00 396.08
72.00 28.97
73.00 0.59
77.00 4.24
78.00 1.14
79.00 8.30
80.00 2.30
81.00 34.86
82.00 96.37
83.00 212.97
84.00 95.63
85.00 349.74
86.00 23.65
91.00 5.48
92.00 0.74
93.00 3.62
94.00 1.38
95.00 23.73
96.00 32.56
97.00 147.83
98.00 49.99
99.00 103.73
100.00 7.25
105.00 1.58
107.00 2.38
108.00 1.82
109.00 13.86
110.00 14.23
111.00 83.65
112.00 38.40
113.00 68.56
114.00 4.94
115.00 0.22
117.00 0.34
119.00 0.42
121.00 2.03
122.00 0.87
123.00 5.84
124.00 7.11
125.00 39.91
126.00 28.64
127.00 52.01
128.00 3.93
129.00 0.09
131.00 1.98
133.00 0.23
135.00 1.82
137.00 4.97
138.00 5.17
139.00 17.76
140.00 24.45
141.00 42.27
142.00 6.10
147.00 0.63
151.00 1.95
152.00 2.86
153.00 11.25
154.00 18.10
155.00 30.04
156.00 2.36
165.00 0.95
166.00 2.65
167.00 7.95
168.00 21.04
169.00 24.94
170.00 5.67
177.00 0.04
179.00 0.67
180.00 1.99
181.00 4.12
182.00 12.70
183.00 22.45
184.00 5.25
194.00 0.12
195.00 2.48
196.00 13.88
197.00 18.07
198.00 4.33
209.00 2.54
210.00 13.89
211.00 16.78
212.00 2.29
222.00 2.64
224.00 13.86
225.00 11.47
226.00 0.77
236.00 1.46
237.00 1.68
238.00 9.04
239.00 15.48
240.00 2.14
250.00 0.26
252.00 9.52
253.00 10.90
266.00 8.00
267.00 10.38
268.00 1.69
278.00 0.10
280.00 10.57
281.00 12.16
282.00 1.93
292.00 1.86
294.00 7.03
295.00 10.52
296.00 1.20
308.00 5.70
309.00 9.37
310.00 2.75
323.00 6.56
324.00 1.21
336.00 4.85
337.00 6.50
338.00 1.44
350.00 3.10
351.00 7.67
352.00 1.40
364.00 2.32
365.00 3.79
378.00 1.21
392.00 0.51
393.00 2.81
