Name: In-silico spectrum 15
Formula:
MW:
CAS#:
Comments: in-silico spectrum
Num peaks: 20
29.00 81.09
41.00 390.95
42.00 84.83
43.00 982.93
55.00 270.81
56.00 319.99
57.00 1312.56
58.00 43.46
69.00 129.79
70.00 210.64
71.00 858.30
84.00 65.87
85.00 619.24
97.00 10.41
98.00 22.22
99.00 227.65
111.00 25.57
113.00 113.73
127.00 73.68
141.00 146.02
