Name: In-silico spectrum 71
Formula:
MW:
CAS#:
Comments: in-silico spectrum
Num peaks: 23
27.00 90.06
29.00 217.59
39.00 55.62
41.00 380.76
42.00 86.19
43.00 355.80
55.00 418.79
56.00 318.08
57.00 519.21
67.00 18.34
68.00 21.20
69.00 423.67
70.00 180.57
71.00 232.55
83.00 305.36
84.00 118.33
85.00 127.59
97.00 287.10
98.00 35.31
99.00 5.24
111.00 196.96
112.00 36.58
125.00 151.87
