Name: In-silico spectrum 71
Formula:
MW:
CAS#:
Comments: in-silico spectrum
Num peaks: 74
26.00 5.45
27.00 82.94
28.00 25.46
29.00 147.60
30.00 1.39
39.00 71.93
40.00 20.59
41.00 396.53
42.00 90.47
43.00 614.81
44.00 23.62
51.00 7.20
52.00 0.60
53.00 37.75
54.00 29.07
55.00 407.10
56.00 197.62
57.00 639.83
58.00 28.10
65.00 11.00
67.00 90.15
68.00 57.65
69.00 287.74
70.00 155.94
71.00 372.91
72.00 19.50
77.00 12.96
79.00 0.95
81.00 35.12
82.00 134.97
83.00 291.47
84.00 109.53
85.00 248.38
86.00 15.68
91.00 9.74
95.00 14.70
96.00 29.71
97.00 183.60
98.00 47.86
99.00 51.66
100.00 3.68
110.00 13.76
111.00 107.81
112.00 36.31
113.00 29.30
114.00 0.46
115.00 2.17
124.00 12.39
125.00 51.12
126.00 26.23
127.00 21.05
128.00 5.62
129.00 3.09
131.00 10.95
132.00 1.72
138.00 6.10
139.00 25.22
140.00 25.59
141.00 18.42
142.00 0.85
145.00 0.23
152.00 6.63
153.00 18.02
154.00 15.45
155.00 10.65
165.00 1.29
166.00 3.56
167.00 13.77
180.00 0.64
181.00 1.08
182.00 8.97
183.00 5.54
195.00 0.29
210.00 9.45
