Name: In-silico spectrum 27
Formula:
MW:
CAS#:
Comments: in-silico spectrum
Num peaks: 30
27.00 39.01
29.00 95.53
39.00 80.55
41.00 371.98
42.00 67.16
43.00 775.46
53.00 76.10
55.00 214.43
56.00 221.74
57.00 1128.28
58.00 58.69
68.00 8.92
69.00 155.06
70.00 185.43
71.00 766.18
84.00 50.98
85.00 471.96
97.00 12.64
98.00 41.77
99.00 149.06
111.00 1.99
112.00 13.62
113.00 99.75
126.00 20.44
127.00 69.52
139.00 6.42
140.00 3.37
141.00 105.43
155.00 51.86
169.00 78.06
