Name: In-silico spectrum 39
Formula:
MW:
CAS#:
Comments: in-silico spectrum
Num peaks: 43
26.00 4.55
27.00 136.33
28.00 26.88
29.00 208.39
30.00 3.55
39.00 88.24
40.00 12.64
41.00 355.27
42.00 95.31
43.00 796.14
44.00 21.28
51.00 4.27
52.00 0.01
53.00 21.91
54.00 7.06
55.00 141.81
56.00 180.28
57.00 779.19
58.00 34.62
65.00 1.52
69.00 54.87
70.00 148.04
71.00 478.11
72.00 23.40
84.00 110.26
85.00 316.17
86.00 18.57
98.00 23.15
99.00 37.08
100.00 2.03
112.00 31.48
113.00 17.48
126.00 23.76
127.00 17.99
128.00 1.06
131.00 0.92
140.00 10.78
141.00 11.39
142.00 1.37
154.00 6.94
155.00 7.09
182.00 4.45
183.00 3.48
