Name: In-silico spectrum 27
Formula:
MW:
CAS#:
Comments: in-silico spectrum
Num peaks: 20
27.00 0.78
29.00 79.69
41.00 372.60
42.00 80.94
43.00 972.93
55.00 232.00
56.00 313.43
57.00 1300.52
58.00 43.18
69.00 99.33
70.00 205.74
71.00 853.54
84.00 61.78
85.00 615.64
98.00 18.09
99.00 224.15
111.00 7.88
113.00 111.41
127.00 73.18
141.00 143.53
