Name: In-silico spectrum 67
Formula:
MW:
CAS#:
Comments: in-silico spectrum
Num peaks: 154
14.00 2.13
25.00 5.30
26.00 56.17
27.00 16.79
28.00 73.53
29.00 3.25
37.00 2.44
38.00 52.67
39.00 12.19
40.00 87.80
41.00 74.21
42.00 92.18
43.00 25.35
49.00 0.54
50.00 4.21
51.00 0.22
52.00 25.48
53.00 29.20
54.00 87.12
55.00 83.29
56.00 93.89
57.00 36.02
58.00 0.71
62.00 0.35
64.00 3.98
65.00 2.83
66.00 59.14
67.00 42.68
68.00 81.50
69.00 80.25
70.00 93.67
71.00 31.20
72.00 0.80
76.00 4.14
77.00 0.30
78.00 8.55
79.00 2.86
80.00 34.82
81.00 63.62
82.00 78.65
83.00 71.24
84.00 89.46
85.00 23.14
90.00 5.85
91.00 0.82
92.00 4.34
93.00 2.20
94.00 24.54
95.00 33.58
96.00 77.51
97.00 50.91
98.00 75.39
99.00 6.87
104.00 2.05
106.00 2.75
107.00 2.14
108.00 14.21
109.00 15.28
110.00 60.74
111.00 39.15
112.00 62.57
113.00 4.21
114.00 0.10
116.00 0.41
118.00 0.99
122.00 6.81
123.00 8.50
124.00 39.89
125.00 31.78
126.00 50.49
127.00 4.65
130.00 2.44
134.00 2.51
135.00 1.57
136.00 5.86
137.00 6.04
138.00 18.54
139.00 25.39
140.00 41.82
141.00 5.38
146.00 1.04
150.00 2.19
151.00 3.82
152.00 11.54
153.00 19.26
154.00 30.62
155.00 2.68
162.00 1.40
164.00 2.25
165.00 3.61
166.00 9.05
167.00 22.84
168.00 24.17
169.00 2.44
179.00 2.55
180.00 4.77
181.00 13.28
182.00 20.58
183.00 4.51
193.00 1.10
194.00 3.02
195.00 13.60
196.00 14.76
197.00 1.31
207.00 1.57
208.00 3.43
209.00 13.73
210.00 16.03
222.00 3.84
223.00 13.99
224.00 11.64
225.00 0.78
236.00 2.34
237.00 11.35
238.00 17.99
239.00 2.93
249.00 1.85
250.00 2.60
251.00 8.64
252.00 10.47
253.00 1.54
263.00 0.54
264.00 0.96
265.00 7.87
266.00 10.33
267.00 1.67
278.00 0.27
279.00 11.75
280.00 13.16
281.00 2.77
293.00 8.64
294.00 13.28
295.00 2.60
305.00 0.45
307.00 8.58
308.00 11.75
309.00 2.77
321.00 3.13
322.00 6.40
323.00 1.76
335.00 6.41
336.00 8.54
337.00 1.98
349.00 4.29
350.00 9.24
351.00 1.90
363.00 2.51
364.00 3.37
365.00 0.33
377.00 1.90
378.00 4.29
379.00 1.22
392.00 2.53
393.00 0.25
