Name: In-silico spectrum 79
Formula:
MW:
CAS#:
Comments: in-silico spectrum
Num peaks: 31
27.00 38.96
29.00 87.44
39.00 45.51
41.00 412.16
42.00 121.28
43.00 756.07
54.00 61.87
55.00 379.43
56.00 249.21
57.00 1036.01
58.00 27.02
68.00 56.03
69.00 249.91
70.00 119.76
71.00 662.76
82.00 74.64
83.00 227.03
84.00 58.89
85.00 438.55
97.00 177.98
98.00 260.38
99.00 227.64
111.00 105.92
112.00 50.32
113.00 98.97
125.00 65.55
127.00 112.61
141.00 51.73
155.00 62.40
168.00 34.94
169.00 27.93
