Name: In-silico spectrum 79
Formula:
MW:
CAS#:
Comments: in-silico spectrum
Num peaks: 17
29.00 74.39
41.00 295.67
42.00 64.88
43.00 620.37
55.00 221.88
56.00 197.72
57.00 864.29
69.00 99.89
70.00 70.61
71.00 518.07
83.00 51.95
84.00 51.96
85.00 358.64
97.00 14.60
99.00 127.56
113.00 48.58
127.00 26.90
