Name: In-silico spectrum 79
Formula:
MW:
CAS#:
Comments: in-silico spectrum
Num peaks: 31
27.00 9.04
29.00 70.56
39.00 57.32
41.00 385.97
42.00 92.76
43.00 815.30
54.00 22.91
55.00 352.81
56.00 173.54
57.00 1074.09
58.00 51.10
68.00 25.15
69.00 198.40
70.00 131.00
71.00 694.10
82.00 39.03
83.00 186.51
84.00 67.89
85.00 492.43
97.00 119.76
98.00 63.30
99.00 164.84
111.00 63.09
112.00 26.85
113.00 109.06
125.00 23.08
127.00 73.69
141.00 119.58
155.00 46.89
168.00 39.53
169.00 113.91
