Name: In-silico spectrum 49
Formula:
MW:
CAS#:
Comments: in-silico spectrum
Num peaks: 20
29.00 81.68
41.00 416.18
42.00 90.44
43.00 1031.02
55.00 303.76
56.00 338.86
57.00 1384.71
58.00 45.79
69.00 152.09
70.00 222.43
71.00 905.69
84.00 69.66
85.00 653.04
97.00 25.55
98.00 25.92
99.00 242.69
111.00 36.02
113.00 122.37
127.00 78.75
141.00 155.47
