Name: In-silico spectrum 49
Formula:
MW:
CAS#:
Comments: in-silico spectrum
Num peaks: 35
57.00 728.69
411.00 3107.58
412.00 3259.18
413.00 3845.19
414.00 4122.71
415.00 3982.82
416.00 3790.86
417.00 3787.89
418.00 3537.10
419.00 3200.89
420.00 9640.85
421.00 12532.38
422.00 17319.70
423.00 19312.07
424.00 19040.39
425.00 18484.21
426.00 17552.04
427.00 16482.51
428.00 15267.41
431.00 776.03
432.00 1393.83
433.00 1707.98
434.00 1354.82
435.00 1801.24
436.00 1445.74
437.00 1408.62
447.00 9997.72
448.00 8719.75
449.00 17836.02
450.00 26756.95
451.00 28095.33
452.00 27533.05
453.00 26442.10
454.00 25190.02
455.00 23533.83
