Name: In-silico spectrum 17
Formula:
MW:
CAS#:
Comments: in-silico spectrum
Num peaks: 35
57.00 897.64
411.00 3816.67
412.00 4020.63
413.00 4726.75
414.00 5079.22
415.00 4896.80
416.00 4639.20
417.00 4640.77
418.00 4337.94
419.00 3917.32
420.00 11929.96
421.00 15512.79
422.00 21486.19
423.00 23943.59
424.00 23616.93
425.00 22917.93
426.00 21756.35
427.00 20416.26
428.00 18923.80
431.00 960.11
432.00 1704.25
433.00 2096.80
434.00 1662.61
435.00 2202.28
436.00 1770.12
437.00 1735.98
447.00 12376.88
448.00 10788.78
449.00 22115.46
450.00 33175.91
451.00 34826.27
452.00 34122.55
453.00 32775.36
454.00 31230.06
455.00 29199.37
