Name: In-silico spectrum 22
Formula:
MW:
CAS#:
Comments: in-silico spectrum
Num peaks: 28
27.00 52.28
29.00 115.74
39.00 74.42
41.00 363.14
42.00 82.13
43.00 810.20
53.00 62.47
54.00 1.05
55.00 196.53
56.00 178.69
57.00 1053.88
58.00 55.06
68.00 6.50
69.00 110.14
70.00 136.00
71.00 680.20
84.00 48.22
85.00 422.98
97.00 2.53
98.00 43.05
99.00 130.49
112.00 17.40
113.00 81.26
126.00 21.45
127.00 58.08
141.00 92.61
155.00 40.31
169.00 74.54
