Name: In-silico spectrum 18
Formula:
MW:
CAS#:
Comments: in-silico spectrum
Num peaks: 35
57.00 624.43
411.00 2663.22
412.00 2794.79
413.00 3296.03
414.00 3534.71
415.00 3414.16
416.00 3248.16
417.00 3245.91
418.00 3031.28
419.00 2742.58
420.00 8269.06
421.00 10749.40
422.00 14858.33
423.00 16566.65
424.00 16334.23
425.00 15856.71
426.00 15056.64
427.00 14138.42
428.00 13096.91
431.00 665.67
432.00 1194.25
433.00 1464.07
434.00 1161.40
435.00 1543.23
436.00 1238.66
437.00 1207.63
447.00 8575.53
448.00 7478.66
449.00 15300.85
450.00 22953.23
451.00 24100.94
452.00 23617.76
453.00 22682.52
454.00 21609.11
455.00 20189.64
