Name: In-silico spectrum 76
Formula:
MW:
CAS#:
Comments: in-silico spectrum
Num peaks: 26
27.00 75.01
29.00 145.35
39.00 79.79
41.00 382.17
42.00 88.25
43.00 866.42
53.00 62.83
54.00 0.61
55.00 188.10
56.00 150.98
57.00 1016.60
58.00 52.70
69.00 78.32
70.00 122.62
71.00 643.15
84.00 53.68
85.00 401.80
98.00 40.99
99.00 107.71
112.00 13.94
113.00 61.64
126.00 22.84
127.00 45.65
141.00 84.14
155.00 30.23
169.00 59.67
