Name: In-silico spectrum 49
Formula:
MW:
CAS#:
Comments: in-silico spectrum
Num peaks: 25
27.00 58.85
29.00 131.79
39.00 75.78
41.00 407.04
42.00 97.62
43.00 927.89
54.00 6.79
55.00 225.17
56.00 165.51
57.00 1123.48
58.00 57.18
68.00 3.19
69.00 102.67
70.00 125.83
71.00 707.54
84.00 55.88
85.00 461.03
98.00 52.27
99.00 135.93
112.00 17.78
113.00 83.46
127.00 56.88
141.00 100.60
155.00 34.39
169.00 84.84
