Name: In-silico spectrum 18
Formula:
MW:
CAS#:
Comments: in-silico spectrum
Num peaks: 26
27.00 87.28
29.00 165.30
39.00 84.33
41.00 395.95
42.00 94.03
43.00 914.29
53.00 62.40
54.00 1.80
55.00 180.49
56.00 142.85
57.00 1011.75
58.00 53.02
69.00 62.61
70.00 111.74
71.00 617.64
84.00 58.51
85.00 397.02
98.00 40.42
99.00 97.36
112.00 13.38
113.00 50.36
126.00 23.55
127.00 38.77
141.00 78.87
155.00 23.40
169.00 52.52
