Name: In-silico spectrum 76
Formula:
MW:
CAS#:
Comments: in-silico spectrum
Num peaks: 20
29.00 81.43
41.00 403.71
42.00 87.82
43.00 1017.30
55.00 281.21
56.00 332.07
57.00 1363.75
58.00 45.18
69.00 135.16
70.00 218.08
71.00 892.80
84.00 67.51
85.00 643.82
97.00 11.52
98.00 23.58
99.00 237.67
111.00 26.65
113.00 119.23
127.00 77.26
141.00 152.18
