Name: In-silico spectrum 18
Formula:
MW:
CAS#:
Comments: in-silico spectrum
Num peaks: 28
27.00 130.55
29.00 186.79
39.00 100.05
41.00 431.79
42.00 127.82
43.00 844.91
54.00 30.16
55.00 213.71
56.00 238.63
57.00 960.07
58.00 23.39
68.00 10.50
69.00 107.08
70.00 128.17
71.00 607.54
83.00 8.13
84.00 70.11
85.00 390.47
97.00 13.73
98.00 221.04
99.00 151.98
111.00 12.57
112.00 30.61
113.00 37.41
125.00 4.90
127.00 72.67
141.00 14.34
155.00 38.11
