Name: In-silico spectrum 76
Formula:
MW:
CAS#:
Comments: in-silico spectrum
Num peaks: 35
57.00 634.27
411.00 2707.47
412.00 2834.32
413.00 3349.03
414.00 3587.40
415.00 3468.72
416.00 3307.83
417.00 3303.38
418.00 3084.01
419.00 2793.25
420.00 8373.87
421.00 10884.29
422.00 15027.72
423.00 16760.36
424.00 16521.73
425.00 16042.23
426.00 15234.18
427.00 14310.29
428.00 13251.57
431.00 674.21
432.00 1216.58
433.00 1488.46
434.00 1180.93
435.00 1572.40
436.00 1260.85
437.00 1225.27
447.00 8682.04
448.00 7573.99
449.00 15479.13
450.00 23221.16
451.00 24385.24
452.00 23899.33
453.00 22950.97
454.00 21862.24
455.00 20417.97
