Name: In-silico spectrum 76
Formula:
MW:
CAS#:
Comments: in-silico spectrum
Num peaks: 24
27.00 74.73
29.00 143.69
39.00 78.53
41.00 378.74
42.00 84.57
43.00 869.22
54.00 2.64
55.00 187.46
56.00 141.24
57.00 995.01
58.00 52.39
69.00 73.89
70.00 116.97
71.00 623.58
84.00 55.53
85.00 401.57
98.00 39.96
99.00 106.03
112.00 9.15
113.00 58.40
127.00 42.93
141.00 82.96
155.00 25.52
169.00 60.67
