Name: In-silico spectrum 49
Formula:
MW:
CAS#:
Comments: in-silico spectrum
Num peaks: 44
15.00 0.83
26.00 2.91
27.00 125.50
28.00 24.69
29.00 188.59
30.00 0.53
39.00 81.20
40.00 11.56
41.00 311.98
42.00 84.27
43.00 741.71
44.00 20.02
51.00 4.90
53.00 19.30
54.00 2.69
55.00 92.76
56.00 159.84
57.00 736.70
58.00 32.92
65.00 1.16
69.00 18.24
70.00 132.41
71.00 458.38
72.00 22.26
84.00 96.06
85.00 302.74
86.00 16.97
98.00 17.95
99.00 36.52
100.00 3.02
112.00 26.26
113.00 18.39
126.00 20.66
127.00 18.64
128.00 1.26
131.00 1.34
140.00 7.47
141.00 10.44
142.00 1.09
154.00 5.32
155.00 7.58
156.00 0.02
182.00 3.06
183.00 1.57
