Name: In-silico spectrum 17
Formula:
MW:
CAS#:
Comments: in-silico spectrum
Num peaks: 30
27.00 123.92
29.00 216.43
39.00 114.73
41.00 741.28
42.00 160.70
43.00 713.42
54.00 113.59
55.00 976.75
56.00 328.60
57.00 760.43
58.00 19.00
67.00 300.93
68.00 185.57
69.00 695.10
70.00 192.94
71.00 329.81
81.00 178.83
82.00 496.57
83.00 861.91
84.00 153.55
85.00 228.80
95.00 135.98
97.00 520.10
98.00 274.77
99.00 93.93
110.00 53.30
111.00 303.13
112.00 63.59
125.00 160.81
127.00 10.51
