Name: In-silico spectrum 18
Formula:
MW:
CAS#:
Comments: in-silico spectrum
Num peaks: 35
15.00 11.38
26.00 4.34
27.00 176.18
28.00 32.91
29.00 248.27
30.00 3.29
38.00 1.83
39.00 106.70
40.00 13.60
41.00 344.77
42.00 95.55
43.00 778.74
44.00 19.82
50.00 1.43
51.00 8.48
53.00 21.73
54.00 2.56
55.00 67.38
56.00 167.22
57.00 695.05
58.00 30.36
65.00 0.65
70.00 144.12
71.00 405.93
72.00 18.76
84.00 113.07
85.00 263.31
86.00 13.59
98.00 11.33
112.00 25.79
126.00 19.61
131.00 11.93
140.00 3.14
154.00 0.16
182.00 0.53
