Name: In-silico spectrum 22
Formula:
MW:
CAS#:
Comments: in-silico spectrum
Num peaks: 35
57.00 649.38
411.00 2772.89
412.00 2901.26
413.00 3429.59
414.00 3672.75
415.00 3551.66
416.00 3388.80
417.00 3383.99
418.00 3158.75
419.00 2861.59
420.00 8569.00
421.00 11137.86
422.00 15374.50
423.00 17148.00
424.00 16903.22
425.00 16412.92
426.00 15587.15
427.00 14642.77
428.00 13558.67
431.00 689.62
432.00 1246.55
433.00 1524.27
434.00 1209.41
435.00 1611.02
436.00 1291.81
437.00 1254.38
447.00 8884.21
448.00 7751.02
449.00 15836.97
450.00 23758.47
451.00 24949.84
452.00 24453.46
453.00 23482.44
454.00 22368.24
455.00 20888.86
