Name: In-silico spectrum 17
Formula:
MW:
CAS#:
Comments: in-silico spectrum
Num peaks: 76
26.00 8.40
27.00 119.76
28.00 38.66
29.00 214.94
30.00 3.86
39.00 103.11
40.00 25.57
41.00 597.14
42.00 129.68
43.00 667.36
44.00 25.20
51.00 7.45
53.00 50.60
54.00 69.03
55.00 755.33
56.00 274.58
57.00 627.08
58.00 26.96
65.00 13.19
66.00 7.49
67.00 209.61
68.00 130.24
69.00 551.60
70.00 215.27
71.00 296.94
72.00 14.95
77.00 13.44
79.00 10.58
81.00 93.02
82.00 360.66
83.00 652.76
84.00 160.96
85.00 189.28
86.00 10.66
91.00 14.50
95.00 64.12
96.00 78.52
97.00 397.79
98.00 77.34
99.00 18.54
100.00 1.17
109.00 22.08
110.00 33.97
111.00 233.59
112.00 54.11
115.00 1.27
124.00 21.73
125.00 112.62
126.00 33.35
128.00 1.36
131.00 18.75
137.00 6.92
138.00 15.43
139.00 56.29
140.00 36.74
141.00 0.67
152.00 13.01
153.00 38.47
154.00 19.09
166.00 12.46
167.00 29.09
180.00 9.17
181.00 15.25
182.00 15.26
195.00 8.69
208.00 0.31
209.00 7.56
210.00 14.62
222.00 6.48
223.00 12.73
236.00 3.89
237.00 2.80
251.00 4.84
266.00 0.44
280.00 2.72
420.00 0.03
