Name: In-silico spectrum 18
Formula:
MW:
CAS#:
Comments: in-silico spectrum
Num peaks: 20
29.00 78.22
41.00 390.39
42.00 85.17
43.00 982.33
55.00 274.14
56.00 321.25
57.00 1319.13
58.00 43.67
69.00 132.57
70.00 210.67
71.00 863.18
84.00 65.21
85.00 622.67
97.00 13.31
98.00 23.34
99.00 230.26
111.00 26.77
113.00 115.65
127.00 74.87
141.00 147.21
