Name: In-silico spectrum 76
Formula:
MW:
CAS#:
Comments: in-silico spectrum
Num peaks: 43
26.00 3.88
27.00 123.93
28.00 24.57
29.00 194.68
30.00 3.14
39.00 82.10
40.00 11.20
41.00 345.59
42.00 93.09
43.00 786.61
44.00 20.58
51.00 2.63
53.00 19.80
54.00 7.95
55.00 143.96
56.00 177.59
57.00 788.03
58.00 35.38
65.00 0.80
69.00 57.09
70.00 143.97
71.00 489.39
72.00 23.96
84.00 105.85
85.00 324.71
86.00 19.19
98.00 24.60
99.00 46.19
100.00 3.02
112.00 31.75
113.00 24.58
114.00 0.31
126.00 24.02
127.00 22.88
128.00 1.11
140.00 11.68
141.00 15.20
142.00 1.81
154.00 8.22
155.00 10.72
156.00 0.54
182.00 5.53
183.00 6.11
