Name: In-silico spectrum 76
Formula:
MW:
CAS#:
Comments: in-silico spectrum
Num peaks: 27
27.00 135.33
29.00 191.76
39.00 103.97
41.00 441.34
42.00 130.73
43.00 873.19
54.00 29.26
55.00 208.38
56.00 244.63
57.00 993.45
58.00 24.37
68.00 7.90
69.00 101.48
70.00 132.01
71.00 632.53
84.00 70.34
85.00 405.35
97.00 5.10
98.00 225.95
99.00 157.79
111.00 7.72
112.00 29.63
113.00 39.33
125.00 1.01
127.00 74.87
141.00 14.49
155.00 39.71
