Name: In-silico spectrum 22
Formula:
MW:
CAS#:
Comments: in-silico spectrum
Num peaks: 43
15.00 4.69
26.00 3.39
27.00 134.28
28.00 26.11
29.00 195.85
30.00 1.01
39.00 84.97
40.00 12.70
41.00 305.36
42.00 82.69
43.00 722.84
44.00 19.90
50.00 0.00
51.00 6.80
53.00 20.63
54.00 0.69
55.00 75.66
56.00 155.09
57.00 699.25
58.00 30.90
65.00 1.89
69.00 6.47
70.00 130.63
71.00 429.93
72.00 20.80
84.00 96.32
85.00 282.99
86.00 15.66
98.00 14.89
99.00 25.48
100.00 1.96
112.00 24.47
113.00 10.11
126.00 19.36
127.00 12.85
128.00 0.93
131.00 5.92
140.00 5.79
141.00 5.76
142.00 0.51
154.00 3.56
155.00 3.48
182.00 1.55
