Name: In-silico spectrum 16
Formula:
MW:
CAS#:
Comments: in-silico spectrum
Num peaks: 21
27.00 10.33
29.00 100.87
41.00 351.38
42.00 32.46
43.00 400.10
54.00 7.27
55.00 640.89
56.00 78.30
57.00 519.98
67.00 227.12
69.00 259.76
70.00 27.63
71.00 262.30
82.00 678.39
83.00 706.69
84.00 53.86
85.00 167.84
97.00 213.79
99.00 24.76
111.00 171.61
125.00 30.47
