Name: In-silico spectrum 56
Formula:
MW:
CAS#:
Comments: in-silico spectrum
Num peaks: 30
27.00 77.94
29.00 127.04
39.00 69.07
41.00 414.84
42.00 123.73
43.00 807.54
54.00 45.89
55.00 283.82
56.00 245.34
57.00 1029.10
58.00 26.73
68.00 31.90
69.00 170.24
70.00 122.23
71.00 662.99
83.00 101.94
84.00 58.92
85.00 431.50
97.00 89.81
98.00 244.70
99.00 203.35
111.00 55.68
112.00 39.32
113.00 79.33
125.00 33.18
127.00 99.59
141.00 36.33
155.00 56.41
168.00 11.42
169.00 11.23
