Name: In-silico spectrum 56
Formula:
MW:
CAS#:
Comments: in-silico spectrum
Num peaks: 17
29.00 70.67
41.00 193.43
42.00 40.63
43.00 423.71
55.00 151.59
56.00 140.28
57.00 686.79
69.00 67.49
70.00 77.48
71.00 460.79
83.00 47.10
84.00 21.87
85.00 265.71
97.00 0.92
99.00 78.32
113.00 65.40
127.00 29.50
