Name: In-silico spectrum 56
Formula:
MW:
CAS#:
Comments: in-silico spectrum
Num peaks: 34
27.00 23.70
29.00 81.36
39.00 62.83
41.00 363.63
42.00 84.26
43.00 781.69
53.00 62.64
54.00 11.65
55.00 275.52
56.00 178.23
57.00 1057.22
58.00 52.63
68.00 16.51
69.00 161.51
70.00 138.87
71.00 697.46
83.00 85.19
84.00 56.06
85.00 462.96
97.00 70.10
98.00 54.57
99.00 153.07
111.00 34.34
112.00 24.29
113.00 103.09
125.00 8.13
126.00 26.33
127.00 71.68
139.00 9.36
140.00 5.41
141.00 110.30
155.00 48.92
168.00 15.31
169.00 97.23
