Name: In-silico spectrum 16
Formula:
MW:
CAS#:
Comments: in-silico spectrum
Num peaks: 32
27.00 36.37
29.00 117.01
39.00 85.07
41.00 631.62
42.00 104.59
43.00 690.85
53.00 44.59
54.00 81.88
55.00 933.67
56.00 201.18
57.00 734.70
58.00 30.46
67.00 285.38
68.00 127.38
69.00 570.05
70.00 166.45
71.00 391.21
81.00 145.31
82.00 554.45
83.00 873.18
84.00 106.06
85.00 239.44
95.00 109.02
97.00 482.32
98.00 71.60
99.00 61.36
110.00 44.83
111.00 274.30
112.00 30.82
113.00 34.44
125.00 122.29
141.00 43.23
