Name: In-silico spectrum 56
Formula:
MW:
CAS#:
Comments: in-silico spectrum
Num peaks: 67
26.00 1.07
27.00 57.96
28.00 14.82
29.00 122.80
30.00 0.62
39.00 53.07
40.00 8.64
41.00 323.59
42.00 84.98
43.00 754.13
44.00 20.53
53.00 16.52
54.00 14.09
55.00 209.25
56.00 178.31
57.00 859.54
58.00 39.70
65.00 0.76
67.00 3.83
68.00 12.20
69.00 114.69
70.00 135.01
71.00 562.98
72.00 28.35
83.00 54.56
84.00 89.33
85.00 379.98
86.00 23.49
97.00 45.27
98.00 37.21
99.00 100.12
100.00 8.30
111.00 23.25
112.00 35.48
113.00 66.96
114.00 4.85
125.00 8.13
126.00 27.41
127.00 51.54
128.00 3.71
139.00 1.66
140.00 19.81
141.00 38.49
142.00 4.20
154.00 16.70
155.00 31.44
156.00 3.35
167.00 1.81
168.00 7.75
169.00 17.11
170.00 0.78
182.00 11.21
183.00 20.68
184.00 2.77
197.00 5.52
210.00 10.09
211.00 11.81
225.00 5.38
226.00 2.21
238.00 0.59
239.00 5.85
267.00 0.58
280.00 1.22
281.00 6.53
282.00 0.31
296.00 0.45
309.00 1.60
