Name: In-silico spectrum 16
Formula:
MW:
CAS#:
Comments: in-silico spectrum
Num peaks: 36
27.00 25.54
29.00 106.37
39.00 79.97
41.00 628.87
42.00 101.65
43.00 695.02
53.00 75.82
54.00 79.32
55.00 929.51
56.00 192.65
57.00 749.73
58.00 32.27
67.00 296.21
68.00 124.61
69.00 562.22
70.00 157.69
71.00 404.27
81.00 147.35
82.00 561.16
83.00 874.14
84.00 99.07
85.00 241.26
95.00 115.90
97.00 487.78
98.00 70.40
99.00 63.59
110.00 46.10
111.00 275.66
112.00 29.41
113.00 38.90
125.00 124.57
126.00 22.41
127.00 3.47
139.00 76.82
140.00 18.09
141.00 44.12
