Name: In-silico spectrum 56
Formula:
MW:
CAS#:
Comments: in-silico spectrum
Num peaks: 30
27.00 24.35
29.00 84.82
39.00 60.85
41.00 364.84
42.00 83.83
43.00 780.40
54.00 13.28
55.00 274.26
56.00 172.60
57.00 1038.19
58.00 51.83
68.00 18.38
69.00 159.54
70.00 135.47
71.00 678.01
83.00 84.85
84.00 58.47
85.00 454.87
97.00 61.37
98.00 54.19
99.00 147.46
111.00 32.02
112.00 22.86
113.00 98.92
125.00 4.14
127.00 67.20
141.00 107.96
155.00 43.74
168.00 10.70
169.00 97.66
