Name: In-silico spectrum 53
Formula:
MW:
CAS#:
Comments: in-silico spectrum
Num peaks: 19
27.00 4.17
29.00 68.60
41.00 308.61
42.00 66.92
43.00 830.02
55.00 173.38
56.00 264.58
57.00 1107.04
58.00 36.96
69.00 64.67
70.00 173.81
71.00 728.41
84.00 50.97
85.00 525.98
98.00 12.54
99.00 189.39
113.00 93.52
127.00 62.16
141.00 121.00
