Name: In-silico spectrum 41
Formula:
MW:
CAS#:
Comments: in-silico spectrum
Num peaks: 28
27.00 104.54
29.00 157.75
39.00 85.09
41.00 433.26
42.00 128.56
43.00 846.67
54.00 39.68
55.00 255.62
56.00 248.83
57.00 1025.21
58.00 26.05
68.00 22.61
69.00 143.50
70.00 127.46
71.00 654.65
83.00 57.79
84.00 65.08
85.00 423.88
97.00 55.15
98.00 239.46
99.00 185.08
111.00 36.10
112.00 36.01
113.00 61.99
125.00 20.38
127.00 89.63
141.00 26.87
155.00 49.59
