Name: In-silico spectrum 53
Formula:
MW:
CAS#:
Comments: in-silico spectrum
Num peaks: 33
29.00 23.59
39.00 72.44
41.00 352.49
42.00 38.13
43.00 467.76
53.00 97.07
55.00 307.26
56.00 308.52
57.00 949.86
58.00 47.53
68.00 45.42
69.00 370.96
70.00 307.63
71.00 752.43
81.00 60.84
83.00 45.29
84.00 74.60
85.00 441.29
97.00 123.93
98.00 53.93
99.00 139.50
110.00 15.58
111.00 90.04
112.00 19.87
113.00 109.19
125.00 57.61
126.00 38.81
127.00 60.79
139.00 65.25
140.00 82.78
141.00 135.04
155.00 30.97
169.00 50.65
