Name: In-silico spectrum 53
Formula:
MW:
CAS#:
Comments: in-silico spectrum
Num peaks: 50
26.00 3.12
27.00 79.84
28.00 18.29
29.00 130.29
39.00 59.72
40.00 15.90
41.00 276.68
42.00 68.49
43.00 659.05
44.00 22.65
51.00 5.70
52.00 2.63
53.00 25.34
55.00 127.77
56.00 149.65
57.00 709.39
58.00 31.75
65.00 5.84
69.00 63.03
70.00 121.58
71.00 460.91
72.00 24.15
77.00 6.64
84.00 80.70
85.00 309.97
86.00 19.62
98.00 22.32
99.00 66.60
100.00 4.53
112.00 24.19
113.00 43.54
114.00 2.43
126.00 20.11
127.00 34.69
128.00 6.10
129.00 3.20
131.00 3.18
132.00 0.39
140.00 11.71
141.00 25.11
142.00 2.42
145.00 2.49
154.00 10.02
155.00 20.27
156.00 1.30
169.00 1.08
182.00 2.33
183.00 10.13
184.00 0.07
211.00 1.04
