Name: In-silico spectrum 12
Formula:
MW:
CAS#:
Comments: in-silico spectrum
Num peaks: 18
27.00 227.85
29.00 305.89
39.00 169.05
41.00 483.76
42.00 124.55
43.00 1209.05
55.00 153.83
56.00 199.63
57.00 857.38
58.00 46.34
69.00 99.21
70.00 161.49
71.00 380.54
84.00 191.00
85.00 426.77
98.00 37.42
99.00 21.45
141.00 39.74
