Name: In-silico spectrum 41
Formula:
MW:
CAS#:
Comments: in-silico spectrum
Num peaks: 35
57.00 788.85
411.00 3359.77
412.00 3532.54
413.00 4159.56
414.00 4465.02
415.00 4308.77
416.00 4090.91
417.00 4090.45
418.00 3821.17
419.00 3454.21
420.00 10466.05
421.00 13607.13
422.00 18827.22
423.00 20986.22
424.00 20695.74
425.00 20086.92
426.00 19071.26
427.00 17902.53
428.00 16588.64
431.00 842.23
432.00 1503.68
433.00 1846.51
434.00 1464.50
435.00 1942.87
436.00 1560.74
437.00 1525.86
447.00 10856.19
448.00 9465.43
449.00 19383.61
450.00 29077.80
451.00 30527.78
452.00 29913.26
453.00 28730.40
454.00 27373.49
455.00 25584.26
