Name: In-silico spectrum 87
Formula:
MW:
CAS#:
Comments: in-silico spectrum
Num peaks: 35
57.00 361.25
411.00 1550.46
412.00 1600.14
413.00 1915.44
414.00 2035.82
415.00 1982.10
416.00 1917.91
417.00 1909.52
418.00 1778.61
419.00 1620.94
420.00 4680.19
421.00 6077.71
422.00 8327.90
423.00 9305.10
424.00 9161.21
425.00 8905.65
426.00 8466.70
427.00 7972.23
428.00 7367.48
431.00 376.97
432.00 706.38
433.00 855.32
434.00 679.80
435.00 914.76
436.00 728.83
437.00 695.45
447.00 4843.86
448.00 4237.16
449.00 8591.58
450.00 12893.37
451.00 13549.79
452.00 13291.43
453.00 12756.79
454.00 12142.84
455.00 11309.92
