Name: In-silico spectrum 12
Formula:
MW:
CAS#:
Comments: in-silico spectrum
Num peaks: 35
15.00 26.42
26.00 6.43
27.00 228.13
28.00 41.47
29.00 303.78
30.00 5.65
38.00 8.20
39.00 132.05
40.00 18.40
41.00 361.80
42.00 100.91
43.00 782.16
44.00 20.51
50.00 7.16
51.00 15.37
52.00 1.98
53.00 27.72
55.00 23.81
56.00 166.41
57.00 612.33
58.00 25.16
65.00 2.48
70.00 151.68
71.00 327.95
72.00 14.29
84.00 126.34
85.00 206.83
86.00 9.34
98.00 1.29
112.00 21.88
115.00 8.81
126.00 16.41
129.00 1.53
131.00 29.18
132.00 1.87
