Name: In-silico spectrum 12
Formula:
MW:
CAS#:
Comments: in-silico spectrum
Num peaks: 35
57.00 380.86
411.00 1634.29
412.00 1688.09
413.00 2019.51
414.00 2146.84
415.00 2089.26
416.00 2019.61
417.00 2011.84
418.00 1873.20
419.00 1706.66
420.00 4941.64
421.00 6417.75
422.00 8798.33
423.00 9829.75
424.00 9678.65
425.00 9407.27
426.00 8943.91
427.00 8419.90
428.00 7782.27
431.00 397.61
432.00 744.59
433.00 901.23
434.00 715.94
435.00 962.91
436.00 768.05
437.00 733.46
447.00 5115.44
448.00 4474.10
449.00 9076.10
450.00 13619.91
451.00 14312.51
452.00 14038.46
453.00 13474.33
454.00 12827.05
455.00 11949.77
