Name: In-silico spectrum 53
Formula:
MW:
CAS#:
Comments: in-silico spectrum
Num peaks: 35
57.00 492.32
411.00 2106.05
412.00 2187.10
413.00 2601.31
414.00 2776.34
415.00 2693.26
416.00 2587.95
417.00 2579.00
418.00 2405.65
419.00 2186.74
420.00 6430.05
421.00 8355.63
422.00 11491.97
423.00 12828.58
424.00 12637.62
425.00 12279.75
426.00 11665.55
427.00 10970.95
428.00 10148.72
431.00 517.39
432.00 951.96
433.00 1158.60
434.00 919.91
435.00 1232.26
436.00 985.42
437.00 946.66
447.00 6661.89
448.00 5817.18
449.00 11846.25
450.00 17773.30
451.00 18672.65
452.00 18308.92
453.00 17576.59
454.00 16736.84
455.00 15609.32
