Name: In-silico spectrum 53
Formula:
MW:
CAS#:
Comments: in-silico spectrum
Num peaks: 46
15.00 10.17
26.00 2.96
27.00 114.39
28.00 21.85
29.00 158.58
38.00 1.06
39.00 71.77
40.00 16.62
41.00 238.37
42.00 61.04
43.00 612.58
44.00 21.35
50.00 3.83
51.00 10.99
52.00 0.74
53.00 23.96
55.00 19.16
56.00 123.04
57.00 598.80
58.00 25.43
65.00 5.16
70.00 109.94
71.00 379.16
72.00 19.71
77.00 7.79
84.00 76.80
85.00 250.36
86.00 14.87
98.00 6.75
99.00 26.14
100.00 2.03
112.00 15.48
113.00 13.68
115.00 6.72
126.00 14.46
127.00 14.85
128.00 4.29
129.00 7.25
131.00 14.70
132.00 5.41
140.00 1.54
141.00 7.03
142.00 0.25
145.00 8.64
154.00 1.78
155.00 5.36
