Name: In-silico spectrum 53
Formula:
MW:
CAS#:
Comments: in-silico spectrum
Num peaks: 30
27.00 44.64
29.00 68.13
39.00 44.21
41.00 281.43
42.00 79.26
43.00 557.29
54.00 30.41
55.00 180.28
56.00 177.57
57.00 762.26
58.00 19.87
68.00 18.52
69.00 118.56
70.00 98.48
71.00 519.06
83.00 39.28
84.00 33.13
85.00 334.81
97.00 49.70
98.00 169.99
99.00 162.65
111.00 34.02
112.00 22.91
113.00 73.09
125.00 20.84
127.00 80.96
141.00 35.31
155.00 49.41
168.00 17.78
169.00 18.90
