Name: In-silico spectrum 41
Formula:
MW:
CAS#:
Comments: in-silico spectrum
Num peaks: 20
29.00 79.99
41.00 420.05
42.00 91.31
43.00 1030.91
55.00 315.82
56.00 340.95
57.00 1389.23
58.00 45.87
69.00 162.00
70.00 223.30
71.00 908.52
84.00 70.09
85.00 655.05
97.00 34.64
98.00 27.57
99.00 244.99
111.00 41.76
113.00 124.09
127.00 79.57
141.00 156.78
