Name: In-silico spectrum 77
Formula:
MW:
CAS#:
Comments: in-silico spectrum
Num peaks: 20
27.00 150.50
29.00 220.86
39.00 123.33
41.00 424.79
42.00 85.88
43.00 1034.02
55.00 163.57
56.00 138.67
57.00 935.14
58.00 50.05
69.00 58.04
70.00 139.19
71.00 544.45
84.00 110.24
85.00 409.91
98.00 25.44
99.00 59.51
113.00 5.04
127.00 10.76
141.00 61.63
