Name: In-silico spectrum 77
Formula:
MW:
CAS#:
Comments: in-silico spectrum
Num peaks: 35
57.00 376.01
411.00 1612.70
412.00 1665.64
413.00 1992.32
414.00 2118.54
415.00 2061.71
416.00 1993.30
417.00 1985.00
418.00 1849.09
419.00 1684.85
420.00 4874.71
421.00 6330.51
422.00 8678.33
423.00 9695.17
424.00 9545.88
425.00 9279.47
426.00 8821.10
427.00 8304.85
428.00 7675.85
431.00 392.50
432.00 734.15
433.00 889.40
434.00 706.63
435.00 950.47
436.00 757.68
437.00 723.43
447.00 5045.80
448.00 4412.98
449.00 8952.20
450.00 13434.24
451.00 14117.23
452.00 13847.42
453.00 13290.96
454.00 12651.87
455.00 11786.01
