Name: In-silico spectrum 53
Formula:
MW:
CAS#:
Comments: in-silico spectrum
Num peaks: 17
27.00 11.50
29.00 62.50
39.00 7.93
41.00 202.49
42.00 39.33
43.00 472.83
55.00 73.47
56.00 172.81
57.00 659.91
69.00 34.96
70.00 73.57
71.00 414.57
84.00 46.15
85.00 280.73
99.00 85.91
113.00 16.94
127.00 8.06
