Name: In-silico spectrum 41
Formula:
MW:
CAS#:
Comments: in-silico spectrum
Num peaks: 50
26.00 2.22
27.00 84.68
28.00 18.73
29.00 152.07
30.00 1.64
39.00 64.90
40.00 9.68
41.00 332.93
42.00 88.45
43.00 770.89
44.00 20.58
53.00 17.83
54.00 11.47
55.00 181.57
56.00 178.40
57.00 835.24
58.00 38.19
65.00 0.73
68.00 5.79
69.00 90.15
70.00 138.89
71.00 536.70
72.00 26.71
83.00 20.88
84.00 96.05
85.00 359.89
86.00 21.81
97.00 15.73
98.00 32.10
99.00 78.93
100.00 6.19
111.00 6.10
112.00 34.02
113.00 50.30
114.00 3.02
126.00 26.08
127.00 40.33
128.00 2.65
140.00 16.49
141.00 29.30
142.00 3.24
154.00 13.25
155.00 23.26
156.00 2.23
169.00 5.59
182.00 8.92
183.00 14.95
184.00 1.41
210.00 5.79
211.00 4.33
