Name: In-silico spectrum 75
Formula:
MW:
CAS#:
Comments: in-silico spectrum
Num peaks: 32
27.00 6.84
29.00 51.58
39.00 26.32
41.00 387.35
42.00 115.75
43.00 715.64
54.00 67.37
55.00 403.26
56.00 248.13
57.00 1049.49
58.00 28.68
68.00 64.33
69.00 273.33
70.00 113.46
71.00 680.39
82.00 102.17
83.00 268.57
84.00 52.90
85.00 452.22
97.00 215.31
98.00 265.33
99.00 249.74
110.00 6.50
111.00 123.94
112.00 53.80
113.00 119.37
125.00 77.62
127.00 123.57
141.00 62.73
155.00 70.46
168.00 50.23
169.00 41.70
