Name: In-silico spectrum 52
Formula:
MW:
CAS#:
Comments: in-silico spectrum
Num peaks: 35
57.00 771.48
411.00 3286.58
412.00 3453.61
413.00 4068.44
414.00 4366.04
415.00 4214.42
416.00 4003.45
417.00 4002.38
418.00 3738.65
419.00 3380.37
420.00 10228.53
421.00 13297.82
422.00 18394.27
423.00 20505.24
424.00 20220.40
425.00 19626.42
426.00 18634.71
427.00 17494.18
428.00 16208.87
431.00 823.27
432.00 1471.65
433.00 1806.36
434.00 1432.66
435.00 1901.64
436.00 1527.19
437.00 1491.99
447.00 10609.09
448.00 9250.72
449.00 18938.92
450.00 28410.76
451.00 29828.69
452.00 29228.96
453.00 28072.70
454.00 26746.07
455.00 24995.54
