Name: In-silico spectrum 59
Formula:
MW:
CAS#:
Comments: in-silico spectrum
Num peaks: 36
29.00 22.41
39.00 47.25
41.00 340.91
42.00 79.76
43.00 740.42
53.00 60.67
54.00 23.26
55.00 378.09
56.00 196.52
57.00 1096.69
58.00 49.63
68.00 36.20
69.00 253.42
70.00 144.77
71.00 738.75
81.00 33.39
82.00 75.58
83.00 239.02
84.00 67.53
85.00 535.09
97.00 187.67
98.00 66.04
99.00 195.80
110.00 4.73
111.00 102.34
112.00 29.05
113.00 135.87
125.00 50.95
126.00 28.28
127.00 92.50
139.00 42.77
140.00 38.25
141.00 134.45
155.00 58.41
168.00 90.70
169.00 128.75
