Name: In-silico spectrum 62
Formula:
MW:
CAS#:
Comments: in-silico spectrum
Num peaks: 28
27.00 48.81
29.00 116.16
39.00 66.77
41.00 372.73
42.00 87.48
43.00 814.49
54.00 10.10
55.00 231.55
56.00 153.19
57.00 989.11
58.00 50.39
68.00 11.23
69.00 118.69
70.00 118.69
71.00 621.37
83.00 27.32
84.00 55.00
85.00 414.23
97.00 18.07
98.00 48.36
99.00 120.77
111.00 7.03
112.00 19.43
113.00 74.58
127.00 53.41
141.00 92.61
155.00 32.32
169.00 79.03
