Name: In-silico spectrum 32
Formula:
MW:
CAS#:
Comments: in-silico spectrum
Num peaks: 19
41.00 188.21
42.00 36.31
43.00 465.16
55.00 203.45
56.00 193.74
57.00 822.99
69.00 152.07
70.00 65.61
71.00 541.63
83.00 78.02
84.00 39.59
85.00 396.51
97.00 99.65
98.00 12.42
99.00 173.93
111.00 25.73
113.00 93.96
127.00 72.30
141.00 58.01
