Name: In-silico spectrum 59
Formula:
MW:
CAS#:
Comments: in-silico spectrum
Num peaks: 97
27.00 10.04
28.00 6.27
29.00 58.22
39.00 25.01
40.00 5.33
41.00 260.84
42.00 66.34
43.00 664.34
44.00 18.92
53.00 11.74
54.00 11.21
55.00 198.94
56.00 153.84
57.00 835.15
58.00 39.23
65.00 0.81
67.00 9.98
68.00 11.75
69.00 114.01
70.00 112.23
71.00 571.95
72.00 29.83
83.00 62.09
84.00 64.48
85.00 388.87
86.00 24.82
91.00 0.78
96.00 9.08
97.00 63.63
98.00 38.98
99.00 130.05
100.00 11.92
110.00 1.37
111.00 32.32
112.00 32.17
113.00 92.01
114.00 8.37
124.00 1.79
125.00 17.82
126.00 26.09
127.00 68.65
128.00 6.95
139.00 6.64
140.00 21.44
141.00 52.28
142.00 5.89
153.00 2.71
154.00 19.67
155.00 43.67
156.00 5.34
167.00 3.12
168.00 30.52
169.00 35.06
170.00 3.97
182.00 12.23
183.00 29.53
184.00 3.23
196.00 18.34
197.00 24.55
198.00 1.07
210.00 15.26
211.00 25.09
212.00 0.99
224.00 26.69
225.00 25.31
226.00 5.42
238.00 13.09
239.00 29.87
240.00 4.36
252.00 13.60
253.00 19.37
254.00 0.56
266.00 10.62
267.00 17.66
268.00 3.35
280.00 13.38
281.00 21.33
282.00 3.89
294.00 10.74
295.00 23.79
296.00 8.62
308.00 8.37
309.00 17.48
310.00 2.87
322.00 1.73
323.00 11.41
324.00 3.34
336.00 5.54
337.00 11.19
338.00 3.33
350.00 4.38
351.00 14.71
352.00 3.57
379.00 0.94
393.00 1.52
394.00 0.32
421.00 1.66
