Name: In-silico spectrum 52
Formula:
MW:
CAS#:
Comments: in-silico spectrum
Num peaks: 29
27.00 66.07
29.00 141.07
39.00 78.96
41.00 412.18
42.00 98.49
43.00 906.88
53.00 65.59
54.00 8.74
55.00 243.37
56.00 158.10
57.00 1064.92
58.00 54.44
68.00 4.76
69.00 110.31
70.00 125.53
71.00 667.92
83.00 17.12
84.00 60.05
85.00 436.54
97.00 12.12
98.00 51.21
99.00 121.23
112.00 21.68
113.00 72.19
126.00 27.22
127.00 53.49
141.00 96.09
155.00 33.72
169.00 75.11
