Name: In-silico spectrum 83
Formula:
MW:
CAS#:
Comments: in-silico spectrum
Num peaks: 33
15.00 18.84
26.00 7.91
27.00 217.05
28.00 38.70
29.00 292.59
30.00 6.62
38.00 5.01
39.00 122.83
40.00 16.46
41.00 366.94
42.00 100.92
43.00 801.04
44.00 21.08
50.00 2.22
51.00 12.64
52.00 4.84
53.00 26.53
55.00 48.97
56.00 171.60
57.00 648.77
58.00 27.22
65.00 2.41
70.00 153.87
71.00 359.55
72.00 16.76
84.00 127.22
85.00 229.75
86.00 12.52
98.00 5.41
112.00 24.96
115.00 3.33
126.00 18.08
131.00 23.00
