Name: In-silico spectrum 32
Formula:
MW:
CAS#:
Comments: in-silico spectrum
Num peaks: 35
39.00 35.64
41.00 268.08
42.00 61.26
43.00 653.93
53.00 53.05
54.00 14.89
55.00 332.24
56.00 213.33
57.00 1107.87
58.00 48.97
68.00 40.47
69.00 272.63
70.00 152.66
71.00 773.51
81.00 57.72
82.00 45.02
83.00 209.27
84.00 64.62
85.00 568.12
97.00 204.75
98.00 61.81
99.00 224.48
110.00 14.85
111.00 112.84
112.00 22.73
113.00 158.15
125.00 60.91
126.00 28.34
127.00 105.04
139.00 59.05
140.00 53.85
141.00 141.07
155.00 68.29
168.00 120.66
169.00 139.90
