Name: In-silico spectrum 59
Formula:
MW:
CAS#:
Comments: in-silico spectrum
Num peaks: 20
29.00 18.52
41.00 251.83
42.00 52.57
43.00 549.29
55.00 222.36
56.00 199.99
57.00 851.54
69.00 135.42
70.00 69.97
71.00 532.81
83.00 74.74
84.00 46.45
85.00 378.32
97.00 65.82
98.00 5.39
99.00 151.99
111.00 0.54
113.00 72.89
127.00 50.67
141.00 12.12
