Name: In-silico spectrum 32
Formula:
MW:
CAS#:
Comments: in-silico spectrum
Num peaks: 21
29.00 67.40
41.00 462.13
42.00 100.55
43.00 1060.27
55.00 418.78
56.00 367.78
57.00 1467.47
58.00 48.15
69.00 242.25
70.00 236.70
71.00 960.79
83.00 90.83
84.00 75.45
85.00 692.74
97.00 105.14
98.00 40.48
99.00 271.35
111.00 86.68
113.00 142.12
127.00 89.11
141.00 172.17
