Name: In-silico spectrum 62
Formula:
MW:
CAS#:
Comments: in-silico spectrum
Num peaks: 53
26.00 2.35
27.00 80.97
28.00 18.87
29.00 147.49
30.00 1.55
39.00 63.86
40.00 10.39
41.00 334.42
42.00 88.25
43.00 755.67
44.00 20.74
53.00 19.03
54.00 13.05
55.00 199.01
56.00 179.84
57.00 823.13
58.00 37.62
65.00 1.61
67.00 0.15
68.00 10.05
69.00 106.29
70.00 139.44
71.00 527.89
72.00 26.38
83.00 43.22
84.00 96.18
85.00 354.55
86.00 21.70
97.00 30.98
98.00 33.90
99.00 80.16
100.00 6.32
111.00 15.47
112.00 34.63
113.00 51.30
114.00 3.01
125.00 2.23
126.00 26.49
127.00 40.64
128.00 3.05
140.00 17.84
141.00 30.10
142.00 3.24
154.00 14.14
155.00 23.60
156.00 2.03
167.00 0.90
169.00 6.79
182.00 9.41
183.00 15.27
184.00 1.46
210.00 7.00
211.00 5.12
