Name: In-silico spectrum 81
Formula:
MW:
CAS#:
Comments: in-silico spectrum
Num peaks: 20
29.00 80.03
41.00 419.29
42.00 91.03
43.00 1026.17
55.00 316.74
56.00 339.57
57.00 1381.89
58.00 45.65
69.00 163.06
70.00 222.48
71.00 903.55
84.00 70.08
85.00 651.41
97.00 36.01
98.00 27.49
99.00 243.60
111.00 42.75
113.00 123.37
127.00 79.06
141.00 156.00
