Name: In-silico spectrum 83
Formula:
MW:
CAS#:
Comments: in-silico spectrum
Num peaks: 18
27.00 131.58
29.00 183.59
39.00 106.84
41.00 333.85
42.00 62.39
43.00 847.01
55.00 90.56
56.00 96.93
57.00 714.77
58.00 39.35
69.00 18.02
70.00 103.67
71.00 400.54
84.00 89.56
85.00 317.17
98.00 7.87
99.00 37.82
141.00 40.08
