Name: In-silico spectrum 44
Formula:
MW:
CAS#:
Comments: in-silico spectrum
Num peaks: 31
29.00 44.95
39.00 60.07
41.00 385.27
42.00 80.58
43.00 797.53
54.00 16.63
55.00 357.28
56.00 210.68
57.00 1180.65
58.00 56.06
68.00 28.65
69.00 240.39
70.00 175.46
71.00 806.00
81.00 11.45
83.00 160.47
84.00 68.07
85.00 556.38
97.00 125.48
98.00 62.37
99.00 195.40
110.00 1.47
111.00 72.98
112.00 25.01
113.00 138.44
125.00 30.69
127.00 92.26
141.00 139.04
155.00 63.52
168.00 56.47
169.00 127.29
