Name: In-silico spectrum 58
Formula:
MW:
CAS#:
Comments: in-silico spectrum
Num peaks: 20
29.00 76.25
41.00 409.45
42.00 89.08
43.00 991.85
55.00 318.65
56.00 330.03
57.00 1339.64
58.00 44.08
69.00 167.67
70.00 215.93
71.00 875.10
84.00 68.36
85.00 631.02
97.00 44.12
98.00 28.43
99.00 237.23
111.00 46.95
113.00 120.63
127.00 77.02
141.00 151.58
