Name: In-silico spectrum 62
Formula:
MW:
CAS#:
Comments: in-silico spectrum
Num peaks: 28
27.00 109.66
29.00 161.94
39.00 85.12
41.00 421.79
42.00 123.00
43.00 799.88
54.00 37.32
55.00 255.54
56.00 236.72
57.00 943.35
58.00 22.62
68.00 21.83
69.00 147.72
70.00 123.93
71.00 593.98
83.00 68.03
84.00 68.21
85.00 387.17
97.00 56.34
98.00 223.80
99.00 161.44
111.00 38.48
112.00 35.58
113.00 47.72
125.00 22.31
127.00 79.09
141.00 21.61
155.00 42.33
