Name: In-silico spectrum 81
Formula:
MW:
CAS#:
Comments: in-silico spectrum
Num peaks: 42
26.00 2.26
27.00 101.45
28.00 20.98
29.00 160.08
39.00 69.27
40.00 10.62
41.00 295.91
42.00 79.11
43.00 715.16
44.00 19.79
51.00 3.21
53.00 18.18
54.00 3.62
55.00 108.97
56.00 156.14
57.00 745.27
58.00 33.65
65.00 1.49
69.00 34.81
70.00 126.71
71.00 474.58
72.00 23.54
84.00 88.33
85.00 315.69
86.00 18.31
98.00 21.54
99.00 54.61
100.00 4.73
112.00 26.90
113.00 32.89
114.00 1.47
126.00 21.34
127.00 28.39
128.00 2.53
140.00 10.05
141.00 18.62
142.00 2.00
154.00 7.94
155.00 14.60
156.00 0.91
182.00 4.52
183.00 7.01
