Name: In-silico spectrum 59
Formula:
MW:
CAS#:
Comments: in-silico spectrum
Num peaks: 18
41.00 167.21
42.00 37.20
43.00 423.85
55.00 208.38
56.00 132.86
57.00 714.56
69.00 126.97
70.00 74.65
71.00 500.19
83.00 146.57
84.00 30.67
85.00 331.46
97.00 97.34
99.00 118.74
111.00 50.07
113.00 99.53
127.00 70.14
141.00 24.13
