Name: In-silico spectrum 62
Formula:
MW:
CAS#:
Comments: in-silico spectrum
Num peaks: 35
57.00 801.09
411.00 3412.38
412.00 3587.28
413.00 4224.62
414.00 4534.51
415.00 4376.17
416.00 4155.31
417.00 4154.77
418.00 3881.26
419.00 3508.66
420.00 10627.32
421.00 13816.83
422.00 19116.10
423.00 21308.85
424.00 21013.65
425.00 20395.43
426.00 19364.58
427.00 18178.15
428.00 16843.68
431.00 855.24
432.00 1527.41
433.00 1875.48
434.00 1487.34
435.00 1973.68
436.00 1585.30
437.00 1549.55
447.00 11023.26
448.00 9611.35
449.00 19681.30
450.00 29524.27
451.00 30997.02
452.00 30373.36
453.00 29172.03
454.00 27794.16
455.00 25976.87
