Name: In-silico spectrum 32
Formula:
MW:
CAS#:
Comments: in-silico spectrum
Num peaks: 18
41.00 82.60
42.00 20.31
43.00 337.28
55.00 193.28
56.00 141.79
57.00 731.74
69.00 147.11
70.00 80.92
71.00 548.72
83.00 161.39
84.00 20.42
85.00 370.58
97.00 146.19
99.00 147.26
111.00 86.57
113.00 125.65
127.00 96.85
141.00 75.33
