Name: In-silico spectrum 59
Formula:
MW:
CAS#:
Comments: in-silico spectrum
Num peaks: 35
57.00 1329.93
411.00 5629.24
412.00 5957.31
413.00 6973.87
414.00 7516.24
415.00 7225.95
416.00 6812.16
417.00 6820.02
418.00 6384.19
419.00 5753.64
420.00 17739.23
421.00 23073.05
422.00 32037.95
423.00 35677.23
424.00 35204.77
425.00 34152.30
426.00 32410.12
427.00 30389.91
428.00 28188.30
431.00 1427.65
432.00 2498.23
433.00 3089.16
434.00 2448.34
435.00 3231.05
436.00 2598.86
437.00 2570.82
447.00 18411.89
448.00 16038.76
449.00 32955.53
450.00 49434.20
451.00 51879.33
452.00 50818.95
453.00 48821.32
454.00 46531.46
455.00 43543.93
