Name: In-silico spectrum 32
Formula:
MW:
CAS#:
Comments: in-silico spectrum
Num peaks: 131
40.00 1.74
41.00 217.19
42.00 51.25
43.00 597.18
44.00 18.95
53.00 6.83
54.00 15.28
55.00 260.69
56.00 145.42
57.00 881.50
58.00 42.00
65.00 0.71
67.00 38.08
68.00 28.10
69.00 172.83
70.00 95.38
71.00 635.27
72.00 34.12
79.00 9.19
80.00 0.74
81.00 44.35
82.00 32.28
83.00 147.38
84.00 42.08
85.00 439.06
86.00 30.26
91.00 11.86
92.00 0.60
95.00 29.93
96.00 44.90
97.00 141.34
98.00 51.29
99.00 190.42
100.00 17.15
105.00 3.04
109.00 12.68
110.00 23.52
111.00 76.74
112.00 35.11
113.00 139.52
114.00 13.77
123.00 1.72
124.00 13.83
125.00 47.29
126.00 29.07
127.00 101.26
128.00 10.56
138.00 7.13
139.00 20.62
140.00 29.92
141.00 79.14
142.00 8.60
152.00 6.43
153.00 18.74
154.00 27.99
155.00 66.57
156.00 8.13
166.00 2.25
167.00 9.69
168.00 73.77
169.00 68.58
170.00 7.67
180.00 0.57
181.00 4.09
182.00 17.18
183.00 47.08
184.00 5.98
194.00 0.42
195.00 5.81
196.00 62.61
197.00 56.14
198.00 7.88
208.00 0.86
209.00 4.15
210.00 26.97
211.00 46.09
212.00 3.52
222.00 6.72
223.00 9.98
224.00 73.74
225.00 59.62
226.00 11.81
236.00 0.38
237.00 3.66
238.00 35.27
239.00 65.26
240.00 10.79
252.00 47.94
253.00 52.99
254.00 7.02
266.00 33.12
267.00 46.63
268.00 9.32
280.00 37.86
281.00 48.16
282.00 8.89
294.00 47.87
295.00 66.25
296.00 19.94
308.00 31.56
309.00 45.89
310.00 9.93
322.00 25.80
323.00 40.11
324.00 11.63
336.00 37.62
337.00 45.88
338.00 14.68
350.00 29.32
351.00 53.50
352.00 17.49
364.00 20.10
365.00 31.99
366.00 8.42
378.00 9.54
379.00 25.37
392.00 15.46
393.00 27.88
394.00 10.06
407.00 10.51
420.00 3.41
421.00 15.88
422.00 4.75
435.00 11.54
449.00 19.36
450.00 10.08
463.00 16.08
464.00 8.61
477.00 19.09
505.00 17.62
519.00 12.32
