Name: In-silico spectrum 32
Formula:
MW:
CAS#:
Comments: in-silico spectrum
Num peaks: 143
40.00 3.79
41.00 238.93
42.00 57.03
43.00 622.59
44.00 20.07
53.00 8.90
54.00 19.88
55.00 295.99
56.00 158.06
57.00 921.46
58.00 43.55
65.00 0.83
67.00 48.02
68.00 35.50
69.00 200.41
70.00 102.42
71.00 658.40
72.00 34.38
73.00 2.84
79.00 13.69
80.00 2.12
81.00 50.63
82.00 49.02
83.00 177.74
84.00 47.67
85.00 457.76
86.00 31.38
91.00 12.77
92.00 0.28
93.00 4.09
95.00 36.44
96.00 51.67
97.00 162.77
98.00 54.89
99.00 197.14
100.00 17.55
105.00 1.22
109.00 21.58
110.00 28.87
111.00 90.91
112.00 37.81
113.00 143.77
114.00 13.21
123.00 8.51
124.00 15.18
125.00 54.44
126.00 29.99
127.00 103.53
128.00 9.20
138.00 8.20
139.00 25.44
140.00 31.82
141.00 80.82
142.00 8.55
152.00 8.27
153.00 21.16
154.00 30.36
155.00 68.50
156.00 7.54
163.00 0.04
166.00 2.86
167.00 11.96
168.00 78.87
169.00 71.16
170.00 7.39
179.00 0.15
180.00 1.04
181.00 7.03
182.00 18.44
183.00 45.63
184.00 7.65
195.00 7.92
196.00 65.90
197.00 57.66
198.00 8.83
204.00 0.80
208.00 1.14
209.00 4.04
210.00 26.99
211.00 46.01
212.00 1.79
222.00 7.63
223.00 12.35
224.00 78.39
225.00 63.21
226.00 13.21
233.00 0.23
236.00 2.11
237.00 4.26
238.00 36.22
239.00 67.92
240.00 11.62
250.00 3.13
251.00 0.55
252.00 50.51
253.00 55.09
254.00 7.60
266.00 35.20
267.00 48.48
268.00 10.10
280.00 40.05
281.00 49.39
282.00 8.57
292.00 0.03
293.00 2.12
294.00 52.95
295.00 71.13
296.00 21.29
308.00 32.74
309.00 46.24
310.00 9.05
321.00 1.57
322.00 26.48
323.00 41.24
324.00 12.75
336.00 39.02
337.00 47.37
338.00 13.44
350.00 29.77
351.00 55.22
352.00 17.43
364.00 21.60
365.00 33.39
366.00 9.22
378.00 10.26
379.00 26.20
380.00 5.15
392.00 14.92
393.00 27.95
394.00 10.41
400.00 2.91
406.00 0.92
407.00 11.30
420.00 3.98
421.00 16.96
435.00 11.99
449.00 20.37
450.00 10.75
463.00 19.14
464.00 5.76
477.00 20.15
505.00 20.28
519.00 13.18
