Name: In-silico spectrum 75
Formula:
MW:
CAS#:
Comments: in-silico spectrum
Num peaks: 35
29.00 34.15
39.00 50.39
41.00 354.71
42.00 84.82
43.00 765.71
53.00 60.94
54.00 23.78
55.00 374.88
56.00 184.61
57.00 1087.96
58.00 49.98
68.00 30.31
69.00 232.04
70.00 137.65
71.00 726.07
81.00 22.64
82.00 75.26
83.00 230.39
84.00 66.73
85.00 522.54
97.00 169.56
98.00 66.06
99.00 186.74
111.00 90.03
112.00 28.62
113.00 128.37
125.00 41.46
126.00 27.85
127.00 87.18
139.00 36.05
140.00 29.62
141.00 130.73
155.00 55.44
168.00 76.87
169.00 123.40
