Name: In-silico spectrum 59
Formula:
MW:
CAS#:
Comments: in-silico spectrum
Num peaks: 119
28.00 1.36
29.00 28.08
39.00 14.69
40.00 5.37
41.00 290.52
42.00 72.32
43.00 705.33
44.00 20.77
53.00 12.29
54.00 20.47
55.00 289.33
56.00 175.92
57.00 942.76
58.00 44.37
65.00 0.77
67.00 37.09
68.00 30.42
69.00 185.44
70.00 121.71
71.00 652.26
72.00 33.76
81.00 20.61
82.00 33.96
83.00 151.00
84.00 67.12
85.00 448.25
86.00 29.54
91.00 5.32
95.00 2.30
96.00 32.67
97.00 132.30
98.00 51.95
99.00 168.54
100.00 14.97
110.00 13.70
111.00 72.95
112.00 39.16
113.00 120.77
114.00 10.94
124.00 7.99
125.00 41.32
126.00 30.96
127.00 87.86
128.00 7.42
138.00 2.78
139.00 18.46
140.00 29.36
141.00 68.29
142.00 7.49
152.00 3.54
153.00 13.10
154.00 27.06
155.00 57.67
156.00 6.87
166.00 1.58
167.00 8.80
168.00 54.70
169.00 53.66
170.00 5.37
181.00 3.64
182.00 17.50
183.00 38.70
184.00 6.57
195.00 3.16
196.00 40.22
197.00 39.92
198.00 5.74
209.00 1.02
210.00 22.76
211.00 35.37
212.00 1.20
222.00 0.84
223.00 3.68
224.00 50.78
225.00 43.50
226.00 10.09
238.00 24.81
239.00 46.73
240.00 7.50
252.00 31.01
253.00 36.16
254.00 4.29
266.00 23.11
267.00 32.56
268.00 7.09
280.00 27.18
281.00 35.55
282.00 6.42
294.00 31.29
295.00 46.36
296.00 14.84
308.00 19.48
309.00 31.08
310.00 6.08
322.00 12.94
323.00 24.53
324.00 8.54
336.00 20.07
337.00 26.68
338.00 7.89
350.00 15.16
351.00 32.63
352.00 9.25
364.00 8.76
365.00 15.36
366.00 3.14
379.00 9.85
392.00 5.40
393.00 13.02
394.00 4.16
407.00 2.10
421.00 8.82
435.00 3.18
449.00 8.16
450.00 3.14
463.00 8.23
477.00 7.58
505.00 0.98
519.00 0.73
