Name: In-silico spectrum 52
Formula:
MW:
CAS#:
Comments: in-silico spectrum
Num peaks: 50
26.00 2.66
27.00 92.41
28.00 20.33
29.00 161.18
30.00 2.06
39.00 68.94
40.00 10.17
41.00 341.19
42.00 90.91
43.00 773.16
44.00 20.59
53.00 18.70
54.00 12.51
55.00 187.42
56.00 181.27
57.00 825.12
58.00 37.58
65.00 1.00
68.00 7.09
69.00 94.49
70.00 141.87
71.00 525.08
72.00 26.04
83.00 27.12
84.00 99.70
85.00 351.53
86.00 21.27
97.00 17.37
98.00 32.11
99.00 72.61
100.00 5.59
111.00 7.31
112.00 34.56
113.00 45.15
114.00 2.38
126.00 26.29
127.00 36.69
128.00 2.33
140.00 16.55
141.00 26.68
142.00 2.93
154.00 12.84
155.00 20.61
156.00 1.74
169.00 2.37
182.00 8.88
183.00 13.37
184.00 1.03
210.00 5.47
211.00 2.34
