Name: In-silico spectrum 52
Formula:
MW:
CAS#:
Comments: in-silico spectrum
Num peaks: 20
29.00 79.96
41.00 423.07
42.00 91.81
43.00 1027.40
55.00 325.37
56.00 340.64
57.00 1383.73
58.00 45.59
69.00 169.84
70.00 223.38
71.00 904.15
84.00 70.82
85.00 651.88
97.00 42.05
98.00 28.53
99.00 244.31
111.00 46.60
113.00 123.97
127.00 79.20
141.00 156.41
