Name: In-silico spectrum 52
Formula:
MW:
CAS#:
Comments: in-silico spectrum
Num peaks: 26
27.00 65.08
29.00 141.06
39.00 75.56
41.00 407.97
42.00 97.78
43.00 905.57
54.00 10.68
55.00 238.42
56.00 151.27
57.00 1044.92
58.00 53.25
68.00 3.59
69.00 104.96
70.00 118.83
71.00 647.99
83.00 13.58
84.00 60.96
85.00 431.18
98.00 50.73
99.00 118.61
112.00 18.77
113.00 68.86
127.00 49.69
141.00 93.49
155.00 28.78
169.00 75.69
