Name: In-silico spectrum 58
Formula:
MW:
CAS#:
Comments: in-silico spectrum
Num peaks: 28
27.00 99.94
29.00 152.90
39.00 81.38
41.00 424.49
42.00 125.68
43.00 816.99
54.00 40.60
55.00 264.60
56.00 242.69
57.00 990.19
58.00 24.63
68.00 25.34
69.00 152.03
70.00 124.84
71.00 629.93
83.00 75.99
84.00 65.46
85.00 409.28
97.00 65.45
98.00 234.94
99.00 178.77
111.00 42.19
112.00 37.23
113.00 60.00
125.00 24.80
127.00 87.33
141.00 27.09
155.00 47.91
