Name: In-silico spectrum 58
Formula:
MW:
CAS#:
Comments: in-silico spectrum
Num peaks: 42
15.00 2.18
26.00 3.22
27.00 138.94
28.00 27.04
29.00 206.34
30.00 1.58
39.00 88.51
40.00 11.40
41.00 327.59
42.00 89.82
43.00 757.94
44.00 19.50
51.00 4.88
53.00 19.14
54.00 5.04
55.00 97.84
56.00 165.48
57.00 732.92
58.00 32.82
65.00 0.47
69.00 19.80
70.00 137.47
71.00 447.42
72.00 21.36
84.00 102.61
85.00 294.31
86.00 16.12
98.00 17.95
99.00 26.44
100.00 2.12
112.00 27.69
113.00 9.96
126.00 21.35
127.00 12.84
128.00 0.02
131.00 2.43
140.00 7.56
141.00 6.05
142.00 0.77
154.00 4.70
155.00 3.43
182.00 3.48
