Name: In-silico spectrum 64
Formula:
MW:
CAS#:
Comments: in-silico spectrum
Num peaks: 32
39.00 37.96
41.00 566.37
42.00 64.18
43.00 600.04
53.00 80.55
54.00 64.38
55.00 780.14
56.00 51.39
57.00 473.35
58.00 16.79
67.00 407.48
68.00 228.62
69.00 646.93
70.00 54.21
71.00 234.48
81.00 365.00
82.00 377.43
83.00 647.10
84.00 30.40
85.00 141.53
95.00 426.35
97.00 466.67
98.00 60.26
99.00 28.69
110.00 112.77
111.00 248.71
112.00 13.24
113.00 18.00
125.00 139.58
126.00 7.07
139.00 54.64
141.00 1.22
