Name: In-silico spectrum 64
Formula:
MW:
CAS#:
Comments: in-silico spectrum
Num peaks: 169
26.00 4.21
27.00 35.18
28.00 21.91
29.00 115.38
39.00 61.76
40.00 26.34
41.00 559.05
42.00 105.30
43.00 571.32
44.00 29.05
51.00 3.86
53.00 50.96
54.00 69.26
55.00 842.13
56.00 253.35
57.00 634.31
58.00 27.98
65.00 15.06
66.00 12.11
67.00 257.37
68.00 150.36
69.00 629.17
70.00 190.82
71.00 328.72
72.00 16.42
77.00 26.43
78.00 5.04
79.00 72.23
80.00 28.57
81.00 174.42
82.00 421.32
83.00 761.86
84.00 129.67
85.00 215.94
86.00 13.49
91.00 36.15
92.00 11.74
93.00 63.53
94.00 35.62
95.00 151.32
96.00 125.00
97.00 484.92
98.00 85.67
99.00 68.61
100.00 6.57
105.00 31.72
106.00 8.09
107.00 56.23
108.00 47.90
109.00 126.58
110.00 71.41
111.00 280.76
112.00 47.93
113.00 39.54
114.00 2.36
117.00 2.35
119.00 19.41
120.00 3.53
121.00 54.65
122.00 41.50
123.00 77.27
124.00 43.63
125.00 142.12
126.00 31.35
127.00 22.73
128.00 7.29
129.00 3.77
131.00 7.08
132.00 1.62
133.00 16.46
134.00 11.35
135.00 54.67
136.00 30.78
137.00 67.58
138.00 31.42
139.00 66.65
140.00 38.23
141.00 21.14
145.00 4.54
147.00 22.45
148.00 23.88
149.00 85.57
150.00 44.54
151.00 41.79
152.00 25.75
153.00 53.39
154.00 23.66
155.00 12.90
160.00 9.94
161.00 10.77
162.00 28.17
163.00 29.88
164.00 13.08
165.00 13.41
166.00 10.63
167.00 29.90
168.00 17.36
169.00 2.82
175.00 18.35
176.00 2.39
177.00 28.55
178.00 11.00
179.00 26.90
180.00 20.28
181.00 18.70
182.00 14.26
183.00 6.30
189.00 13.24
190.00 25.46
191.00 24.26
192.00 2.02
194.00 4.63
195.00 12.19
196.00 9.27
203.00 32.14
204.00 38.97
205.00 29.67
206.00 18.98
207.00 13.23
208.00 5.32
209.00 10.73
210.00 18.03
216.00 4.39
217.00 83.90
218.00 68.01
219.00 30.69
220.00 9.67
222.00 16.79
223.00 25.68
224.00 16.62
225.00 0.04
231.00 9.85
232.00 32.68
233.00 32.64
234.00 21.46
236.00 9.74
237.00 9.32
238.00 12.26
244.00 4.91
245.00 0.73
250.00 1.30
251.00 8.01
252.00 2.09
257.00 44.79
258.00 21.59
259.00 41.43
260.00 18.77
261.00 11.01
266.00 20.80
267.00 9.41
280.00 22.03
281.00 5.34
285.00 22.85
292.00 9.42
293.00 11.32
294.00 22.38
295.00 13.79
300.00 25.74
301.00 4.51
321.00 5.54
364.00 2.54
368.00 9.54
370.00 2.88
397.00 36.19
398.00 9.40
400.00 9.72
412.00 74.40
413.00 37.34
420.00 7.50
