Name: In-silico spectrum 36
Formula:
MW:
CAS#:
Comments: in-silico spectrum
Num peaks: 23
27.00 158.73
29.00 218.83
39.00 119.01
41.00 458.68
42.00 135.85
43.00 915.75
54.00 22.92
55.00 184.76
56.00 250.51
57.00 1003.02
58.00 24.23
69.00 79.39
70.00 138.40
71.00 637.19
84.00 76.21
85.00 405.96
98.00 223.43
99.00 145.78
112.00 26.57
113.00 25.90
127.00 67.33
141.00 5.86
155.00 34.53
