Name: In-silico spectrum 11
Formula:
MW:
CAS#:
Comments: in-silico spectrum
Num peaks: 95
27.00 10.36
28.00 6.98
29.00 69.55
39.00 31.07
40.00 6.50
41.00 299.86
42.00 76.64
43.00 729.72
44.00 20.65
53.00 13.63
54.00 16.01
55.00 240.14
56.00 174.37
57.00 909.62
58.00 42.56
65.00 0.40
67.00 17.29
68.00 19.25
69.00 142.92
70.00 125.84
71.00 617.23
72.00 31.68
82.00 1.72
83.00 92.46
84.00 75.27
85.00 420.71
86.00 26.81
96.00 12.49
97.00 83.73
98.00 44.19
99.00 138.66
100.00 12.10
110.00 0.63
111.00 44.92
112.00 36.71
113.00 97.40
114.00 8.33
124.00 1.50
125.00 23.33
126.00 28.86
127.00 72.34
128.00 5.79
139.00 9.07
140.00 24.18
141.00 55.06
142.00 6.06
153.00 4.31
154.00 22.09
155.00 46.48
156.00 5.55
167.00 4.65
168.00 33.24
169.00 37.45
170.00 3.36
182.00 14.29
183.00 30.82
184.00 5.04
196.00 18.62
197.00 24.60
198.00 2.79
210.00 16.39
211.00 24.94
224.00 27.32
225.00 26.21
226.00 6.42
238.00 13.66
239.00 28.81
240.00 3.71
252.00 14.59
253.00 19.76
254.00 0.78
266.00 11.70
267.00 18.08
268.00 3.60
280.00 14.62
281.00 22.33
282.00 3.70
294.00 12.26
295.00 24.47
296.00 8.33
308.00 7.97
309.00 17.90
310.00 3.03
322.00 1.33
323.00 10.46
324.00 4.80
336.00 4.88
337.00 9.90
338.00 2.56
350.00 3.35
351.00 14.14
352.00 2.18
365.00 0.30
393.00 1.03
421.00 2.09
