Name: In-silico spectrum 36
Formula:
MW:
CAS#:
Comments: in-silico spectrum
Num peaks: 43
26.00 4.80
27.00 141.25
28.00 27.84
29.00 213.94
30.00 3.81
39.00 90.69
40.00 13.07
41.00 359.06
42.00 96.39
43.00 797.79
44.00 21.37
51.00 4.77
52.00 0.22
53.00 22.52
54.00 7.08
55.00 142.18
56.00 181.50
57.00 773.18
58.00 34.25
65.00 1.68
69.00 55.10
70.00 149.68
71.00 471.61
72.00 23.08
84.00 112.22
85.00 311.46
86.00 18.28
98.00 22.84
99.00 33.22
100.00 1.63
112.00 31.62
113.00 14.42
126.00 23.76
127.00 15.84
128.00 0.90
131.00 2.38
140.00 10.62
141.00 9.79
142.00 1.19
154.00 6.58
155.00 5.52
182.00 4.21
183.00 2.43
