Name: In-silico spectrum 11
Formula:
MW:
CAS#:
Comments: in-silico spectrum
Num peaks: 21
29.00 77.10
41.00 441.50
42.00 95.86
43.00 1051.31
55.00 360.62
56.00 353.84
57.00 1428.56
58.00 46.95
69.00 196.41
70.00 230.56
71.00 934.01
83.00 25.43
84.00 73.26
85.00 673.12
97.00 63.73
98.00 32.83
99.00 256.18
111.00 60.88
113.00 131.42
127.00 83.36
141.00 163.65
