Name: In-silico spectrum 89
Formula:
MW:
CAS#:
Comments: in-silico spectrum
Num peaks: 39
15.00 8.52
26.00 4.03
27.00 158.69
28.00 30.19
29.00 226.90
30.00 2.19
38.00 0.61
39.00 98.00
40.00 13.75
41.00 333.28
42.00 90.99
43.00 762.67
44.00 20.30
50.00 0.93
51.00 8.00
53.00 22.13
54.00 1.92
55.00 77.35
56.00 164.64
57.00 706.02
58.00 30.89
65.00 1.54
69.00 3.09
70.00 140.38
71.00 422.04
72.00 19.93
84.00 107.08
85.00 275.66
86.00 14.70
98.00 13.48
99.00 9.44
100.00 0.47
112.00 25.55
126.00 19.84
127.00 3.86
131.00 9.78
140.00 4.61
154.00 1.86
182.00 1.04
