Name: In-silico spectrum 89
Formula:
MW:
CAS#:
Comments: in-silico spectrum
Num peaks: 35
57.00 634.94
411.00 2710.98
412.00 2835.81
413.00 3352.90
414.00 3590.19
415.00 3472.55
416.00 3314.15
417.00 3308.83
418.00 3088.44
419.00 2798.22
420.00 8374.58
421.00 10884.89
422.00 15023.47
423.00 16757.39
424.00 16517.55
425.00 16038.79
426.00 15231.92
427.00 14309.65
428.00 13249.49
431.00 673.73
432.00 1219.21
433.00 1490.29
434.00 1182.76
435.00 1575.40
436.00 1262.99
437.00 1225.87
447.00 8682.77
448.00 7575.08
449.00 15475.75
450.00 23216.65
451.00 24381.79
452.00 23896.58
453.00 22947.84
454.00 21858.34
455.00 20411.77
