Name: In-silico spectrum 89
Formula:
MW:
CAS#:
Comments: in-silico spectrum
Num peaks: 25
27.00 70.06
29.00 144.10
39.00 78.88
41.00 400.26
42.00 91.35
43.00 897.43
54.00 6.81
55.00 210.64
56.00 157.05
57.00 1046.88
58.00 54.51
68.00 4.21
69.00 99.97
70.00 120.84
71.00 647.53
84.00 57.22
85.00 424.74
98.00 45.01
99.00 114.75
112.00 16.00
113.00 65.39
127.00 49.35
141.00 89.44
155.00 27.97
169.00 70.49
