Name: In-silico spectrum 35
Formula:
MW:
CAS#:
Comments: in-silico spectrum
Num peaks: 35
57.00 861.81
411.00 3666.87
412.00 3861.08
413.00 4540.95
414.00 4878.16
415.00 4704.10
416.00 4459.30
417.00 4460.40
418.00 4168.43
419.00 3765.47
420.00 11451.44
421.00 14889.76
422.00 20617.23
423.00 22976.71
424.00 22661.95
425.00 21992.46
426.00 20878.58
427.00 19594.44
428.00 18160.39
431.00 921.53
432.00 1638.54
433.00 2014.94
434.00 1597.81
435.00 2117.24
436.00 1701.45
437.00 1667.35
447.00 11879.96
448.00 10356.03
449.00 21222.81
450.00 31836.36
451.00 33420.93
452.00 32745.98
453.00 31452.74
454.00 29969.38
455.00 28017.88
