Name: In-silico spectrum 11
Formula:
MW:
CAS#:
Comments: in-silico spectrum
Num peaks: 68
26.00 0.26
27.00 48.83
28.00 12.37
29.00 101.67
39.00 43.46
40.00 6.93
41.00 273.37
42.00 71.58
43.00 690.70
44.00 19.15
53.00 13.50
54.00 7.64
55.00 152.81
56.00 153.93
57.00 803.06
58.00 37.34
65.00 0.53
68.00 1.25
69.00 73.29
70.00 117.52
71.00 535.68
72.00 27.36
83.00 4.75
84.00 73.98
85.00 361.13
86.00 22.12
97.00 15.77
98.00 31.06
99.00 98.69
100.00 8.91
111.00 4.81
112.00 29.83
113.00 67.51
114.00 5.52
125.00 0.31
126.00 23.87
127.00 51.98
128.00 4.85
140.00 16.12
141.00 38.06
142.00 4.22
154.00 14.50
155.00 31.66
156.00 3.59
168.00 8.51
169.00 17.84
170.00 1.88
182.00 8.88
183.00 20.14
184.00 1.30
197.00 8.80
210.00 8.41
211.00 14.02
224.00 2.53
225.00 7.55
226.00 1.78
238.00 1.20
239.00 11.89
240.00 0.79
253.00 2.23
267.00 2.82
268.00 0.02
280.00 0.51
281.00 7.10
282.00 0.79
295.00 1.99
296.00 2.41
309.00 2.86
