Name: In-silico spectrum 11
Formula:
MW:
CAS#:
Comments: in-silico spectrum
Num peaks: 35
57.00 1115.84
411.00 4732.14
412.00 4998.88
413.00 5861.74
414.00 6309.93
415.00 6072.99
416.00 5736.80
417.00 5741.67
418.00 5371.35
419.00 4844.84
420.00 14863.97
421.00 19330.89
422.00 26814.83
423.00 29868.81
424.00 29468.46
425.00 28591.00
426.00 27136.48
427.00 25453.01
428.00 23602.39
431.00 1196.10
432.00 2105.49
433.00 2598.03
434.00 2059.57
435.00 2721.88
436.00 2188.77
437.00 2157.78
447.00 15424.84
448.00 13440.18
449.00 27589.84
450.00 41386.42
451.00 43437.86
452.00 42553.80
453.00 40878.22
454.00 38957.00
455.00 36443.28
