Name: In-silico spectrum 89
Formula:
MW:
CAS#:
Comments: in-silico spectrum
Num peaks: 42
26.00 4.48
27.00 133.67
28.00 26.95
29.00 207.43
30.00 3.61
39.00 88.10
40.00 12.59
41.00 365.68
42.00 97.97
43.00 805.45
44.00 21.46
51.00 3.60
53.00 22.18
54.00 9.72
55.00 163.43
56.00 186.27
57.00 795.43
58.00 35.38
65.00 1.57
68.00 0.54
69.00 71.56
70.00 151.71
71.00 488.09
72.00 23.91
84.00 112.71
85.00 323.13
86.00 19.09
98.00 26.08
99.00 41.42
100.00 2.47
112.00 33.40
113.00 20.47
126.00 25.06
127.00 19.99
128.00 1.11
140.00 12.54
141.00 13.25
142.00 1.52
154.00 8.23
155.00 8.39
182.00 5.76
183.00 4.77
