Name: In-silico spectrum 36
Formula:
MW:
CAS#:
Comments: in-silico spectrum
Num peaks: 23
27.00 85.11
29.00 155.41
39.00 86.28
41.00 385.89
42.00 80.48
43.00 883.03
55.00 179.71
56.00 157.26
57.00 1018.37
58.00 54.39
69.00 82.63
70.00 133.84
71.00 639.66
84.00 59.60
85.00 407.02
98.00 36.27
99.00 102.35
112.00 8.67
113.00 54.46
127.00 43.20
141.00 82.40
155.00 24.42
169.00 53.99
