Name: In-silico spectrum 90
Formula:
MW:
CAS#:
Comments: in-silico spectrum
Num peaks: 34
27.00 28.58
29.00 89.79
39.00 68.28
41.00 383.31
42.00 90.63
43.00 841.10
53.00 64.75
54.00 9.86
55.00 271.59
56.00 188.99
57.00 1135.28
58.00 57.25
68.00 16.72
69.00 157.48
70.00 142.42
71.00 743.78
83.00 62.05
84.00 55.80
85.00 489.74
97.00 60.62
98.00 56.60
99.00 162.58
111.00 27.43
112.00 24.70
113.00 107.99
125.00 2.56
126.00 27.31
127.00 74.94
139.00 5.10
140.00 0.70
141.00 114.09
155.00 51.07
168.00 10.73
169.00 101.72
