Name: In-silico spectrum 91
Formula:
MW:
CAS#:
Comments: in-silico spectrum
Num peaks: 34
15.00 20.41
26.00 5.32
27.00 205.96
28.00 37.32
29.00 279.38
30.00 4.40
38.00 5.44
39.00 120.54
40.00 16.08
41.00 349.27
42.00 97.02
43.00 784.02
44.00 20.40
50.00 4.88
51.00 12.41
52.00 0.35
53.00 24.53
55.00 28.78
56.00 163.73
57.00 651.28
58.00 27.54
65.00 1.38
70.00 146.54
71.00 365.62
72.00 16.38
84.00 118.87
85.00 233.73
86.00 11.33
98.00 3.88
112.00 22.37
115.00 4.86
126.00 17.04
131.00 21.49
132.00 0.18
