Name: In-silico spectrum 42
Formula:
MW:
CAS#:
Comments: in-silico spectrum
Num peaks: 19
41.00 216.57
42.00 44.13
43.00 489.68
55.00 201.41
56.00 195.46
57.00 810.46
69.00 140.81
70.00 68.70
71.00 518.64
83.00 62.99
84.00 41.71
85.00 370.43
97.00 76.08
98.00 9.06
99.00 156.05
111.00 9.87
113.00 78.84
127.00 57.65
141.00 31.67
