Name: In-silico spectrum 30
Formula:
MW:
CAS#:
Comments: in-silico spectrum
Num peaks: 23
27.00 49.26
29.00 102.52
39.00 76.70
41.00 347.38
42.00 59.05
43.00 765.06
55.00 173.30
56.00 193.25
57.00 1060.13
58.00 55.70
69.00 118.07
70.00 171.60
71.00 717.08
84.00 46.13
85.00 439.82
98.00 35.46
99.00 132.68
112.00 5.68
113.00 88.09
127.00 60.78
141.00 98.73
155.00 42.37
169.00 70.40
