Name: In-silico spectrum 90
Formula:
MW:
CAS#:
Comments: in-silico spectrum
Num peaks: 29
27.00 29.09
29.00 92.50
39.00 64.93
41.00 380.81
42.00 90.87
43.00 839.15
54.00 11.77
55.00 264.55
56.00 181.92
57.00 1110.65
58.00 55.99
68.00 18.23
69.00 151.59
70.00 135.70
71.00 717.84
83.00 57.54
84.00 57.53
85.00 478.93
97.00 49.16
98.00 56.95
99.00 156.31
111.00 23.77
112.00 23.15
113.00 103.92
127.00 69.74
141.00 111.08
155.00 44.71
168.00 5.39
169.00 101.73
