Name: In-silico spectrum 38
Formula:
MW:
CAS#:
Comments: in-silico spectrum
Num peaks: 23
27.00 90.23
29.00 149.64
39.00 98.63
41.00 394.68
42.00 64.00
43.00 841.09
55.00 203.30
56.00 179.86
57.00 987.46
58.00 52.39
69.00 128.22
70.00 179.03
71.00 646.02
84.00 76.93
85.00 422.23
98.00 31.88
99.00 100.92
112.00 0.88
113.00 54.14
127.00 42.89
141.00 85.87
155.00 25.46
169.00 39.26
