Name: In-silico spectrum 20
Formula:
MW:
CAS#:
Comments: in-silico spectrum
Num peaks: 28
27.00 35.84
29.00 103.36
39.00 65.46
41.00 386.40
42.00 91.52
43.00 831.80
54.00 13.93
55.00 273.34
56.00 167.73
57.00 1054.35
58.00 53.16
68.00 16.01
69.00 146.37
70.00 129.53
71.00 674.15
83.00 73.67
84.00 60.08
85.00 452.94
97.00 48.62
98.00 55.39
99.00 140.20
111.00 23.18
112.00 23.57
113.00 91.19
127.00 62.83
141.00 105.30
155.00 39.62
169.00 93.85
