Name: In-silico spectrum 91
Formula:
MW:
CAS#:
Comments: in-silico spectrum
Num peaks: 22
27.00 99.12
29.00 167.60
39.00 89.33
41.00 359.29
42.00 84.46
43.00 905.57
55.00 109.74
56.00 111.56
57.00 920.59
58.00 50.35
69.00 2.42
70.00 85.30
71.00 543.58
84.00 54.58
85.00 356.83
98.00 24.25
99.00 76.00
113.00 23.98
127.00 17.24
141.00 62.02
155.00 4.80
169.00 30.60
