Name: In-silico spectrum 14
Formula:
MW:
CAS#:
Comments: in-silico spectrum
Num peaks: 20
27.00 3.80
29.00 80.92
41.00 364.23
42.00 79.04
43.00 958.99
55.00 218.14
56.00 306.47
57.00 1275.71
58.00 42.30
69.00 89.05
70.00 202.03
71.00 836.67
84.00 60.63
85.00 603.86
98.00 16.51
99.00 218.05
111.00 2.98
113.00 107.71
127.00 70.96
141.00 139.73
