Name: In-silico spectrum 14
Formula:
MW:
CAS#:
Comments: in-silico spectrum
Num peaks: 35
57.00 445.60
411.00 1909.19
412.00 1981.04
413.00 2359.07
414.00 2515.02
415.00 2441.83
416.00 2349.70
417.00 2341.82
418.00 2182.87
419.00 1984.69
420.00 5818.03
421.00 7558.56
422.00 10388.27
423.00 11599.20
424.00 11425.05
425.00 11101.55
426.00 10549.07
427.00 9923.52
428.00 9177.77
431.00 468.33
432.00 865.51
433.00 1051.15
434.00 834.88
435.00 1118.98
436.00 894.06
437.00 858.61
447.00 6026.32
448.00 5264.99
449.00 10710.73
450.00 16070.30
451.00 16883.82
452.00 16555.49
453.00 15893.24
454.00 15133.00
455.00 14110.62
