Name: In-silico spectrum 30
Formula:
MW:
CAS#:
Comments: in-silico spectrum
Num peaks: 36
15.00 13.77
26.00 4.52
27.00 164.80
28.00 30.92
29.00 228.24
30.00 2.14
38.00 2.71
39.00 99.58
40.00 15.68
41.00 314.09
42.00 85.05
43.00 732.86
44.00 20.85
50.00 3.56
51.00 10.99
53.00 24.27
55.00 42.63
56.00 153.80
57.00 660.74
58.00 28.21
65.00 2.93
70.00 135.06
71.00 392.83
72.00 18.72
84.00 103.41
85.00 255.54
86.00 13.55
98.00 8.06
112.00 21.54
115.00 3.88
126.00 17.24
128.00 0.07
129.00 1.06
131.00 16.06
132.00 1.22
140.00 1.28
