Name: In-silico spectrum 91
Formula:
MW:
CAS#:
Comments: in-silico spectrum
Num peaks: 36
15.00 8.71
26.00 6.37
27.00 183.77
28.00 33.81
29.00 260.13
30.00 5.57
38.00 0.41
39.00 108.92
40.00 13.91
41.00 369.90
42.00 101.30
43.00 810.86
44.00 20.73
51.00 8.08
52.00 1.88
53.00 23.40
54.00 3.74
55.00 97.64
56.00 179.04
57.00 716.62
58.00 31.02
65.00 1.21
69.00 15.87
70.00 153.68
71.00 416.40
72.00 19.76
84.00 122.32
85.00 270.48
86.00 15.25
98.00 14.36
112.00 29.17
126.00 21.32
131.00 11.67
140.00 5.13
154.00 0.93
182.00 0.76
