Name: In-silico spectrum 42
Formula:
MW:
CAS#:
Comments: in-silico spectrum
Num peaks: 21
29.00 74.17
41.00 454.10
42.00 98.60
43.00 1060.07
55.00 390.30
56.00 361.35
57.00 1449.48
58.00 47.67
69.00 219.31
70.00 234.55
71.00 947.88
83.00 57.29
84.00 75.19
85.00 683.13
97.00 83.84
98.00 36.44
99.00 263.14
111.00 73.84
113.00 136.20
127.00 85.85
141.00 167.77
