Name: In-silico spectrum 91
Formula:
MW:
CAS#:
Comments: in-silico spectrum
Num peaks: 35
57.00 440.09
411.00 1886.12
412.00 1957.64
413.00 2330.73
414.00 2484.92
415.00 2412.41
416.00 2321.40
417.00 2313.63
418.00 2156.48
419.00 1960.66
420.00 5749.24
421.00 7468.98
422.00 10265.69
423.00 11461.95
424.00 11289.92
425.00 10970.65
426.00 10424.13
427.00 9806.02
428.00 9069.30
431.00 462.84
432.00 855.18
433.00 1038.44
434.00 824.97
435.00 1105.32
436.00 883.20
437.00 848.25
447.00 5954.95
448.00 5202.40
449.00 10584.25
450.00 15880.52
451.00 16684.03
452.00 16359.41
453.00 15705.05
454.00 14953.98
455.00 13944.03
