Name: In-silico spectrum 14
Formula:
MW:
CAS#:
Comments: in-silico spectrum
Num peaks: 21
27.00 194.65
29.00 258.62
39.00 135.95
41.00 465.73
42.00 135.08
43.00 886.71
54.00 13.37
55.00 171.96
56.00 237.29
57.00 866.89
58.00 18.45
69.00 71.05
70.00 140.60
71.00 529.84
84.00 91.08
85.00 341.25
98.00 194.71
99.00 90.05
112.00 23.65
127.00 39.63
155.00 15.54
