Name: In-silico spectrum 14
Formula:
MW:
CAS#:
Comments: in-silico spectrum
Num peaks: 19
27.00 149.03
29.00 219.02
39.00 118.60
41.00 397.79
42.00 90.81
43.00 982.59
55.00 136.76
56.00 139.57
57.00 843.98
58.00 45.35
69.00 51.51
70.00 120.46
71.00 455.67
84.00 109.16
85.00 370.37
98.00 25.60
99.00 46.82
127.00 3.00
141.00 50.92
