Name: In-silico spectrum 20
Formula:
MW:
CAS#:
Comments: in-silico spectrum
Num peaks: 54
26.00 1.77
27.00 72.88
28.00 17.25
29.00 139.57
30.00 1.24
39.00 60.03
40.00 9.35
41.00 332.10
42.00 87.74
43.00 763.72
44.00 20.60
53.00 17.55
54.00 13.48
55.00 200.91
56.00 180.05
57.00 846.32
58.00 38.86
65.00 0.90
68.00 10.16
69.00 106.76
70.00 138.30
71.00 547.63
72.00 27.39
83.00 43.54
84.00 94.02
85.00 368.37
86.00 22.56
97.00 33.77
98.00 35.14
99.00 88.44
100.00 7.15
111.00 16.69
112.00 35.17
113.00 57.69
114.00 3.79
125.00 3.47
126.00 27.00
127.00 45.23
128.00 3.14
140.00 18.47
141.00 33.48
142.00 3.65
154.00 15.08
155.00 26.82
156.00 2.65
167.00 0.89
169.00 10.80
182.00 10.24
183.00 17.58
184.00 2.03
210.00 8.13
211.00 7.75
226.00 0.87
281.00 1.67
