Name: In-silico spectrum 91
Formula:
MW:
CAS#:
Comments: in-silico spectrum
Num peaks: 19
27.00 5.46
29.00 83.26
41.00 369.96
42.00 80.37
43.00 990.04
55.00 209.84
56.00 314.46
57.00 1317.17
58.00 43.65
69.00 79.45
70.00 207.17
71.00 864.84
84.00 61.01
85.00 624.32
98.00 15.65
99.00 224.56
113.00 110.76
127.00 73.18
141.00 143.60
