Name: In-silico spectrum 30
Formula:
MW:
CAS#:
Comments: in-silico spectrum
Num peaks: 35
57.00 475.90
411.00 2037.84
412.00 2113.16
413.00 2518.03
414.00 2683.17
415.00 2605.61
416.00 2508.43
417.00 2500.17
418.00 2330.24
419.00 2119.42
420.00 6204.59
421.00 8060.76
422.00 11075.58
423.00 12366.73
424.00 12181.09
425.00 11836.92
426.00 11248.14
427.00 10582.06
428.00 9786.28
431.00 499.29
432.00 923.86
433.00 1122.01
434.00 890.74
435.00 1194.47
436.00 954.72
437.00 916.23
447.00 6426.39
448.00 5614.85
449.00 11419.72
450.00 17134.42
451.00 18002.03
452.00 17652.91
453.00 16945.91
454.00 16135.81
455.00 15044.02
