Name: In-silico spectrum 90
Formula:
MW:
CAS#:
Comments: in-silico spectrum
Num peaks: 17
27.00 20.65
29.00 114.30
39.00 5.47
41.00 303.75
42.00 67.54
43.00 645.83
55.00 162.14
56.00 210.78
57.00 858.70
69.00 66.65
70.00 81.17
71.00 506.46
84.00 56.13
85.00 336.72
99.00 104.58
113.00 22.30
127.00 4.97
