Name: In-silico spectrum 42
Formula:
MW:
CAS#:
Comments: in-silico spectrum
Num peaks: 31
29.00 19.15
39.00 11.75
41.00 325.92
42.00 103.08
43.00 655.41
54.00 60.50
55.00 339.26
56.00 229.78
57.00 1020.62
58.00 29.75
68.00 54.93
69.00 231.11
70.00 99.05
71.00 680.01
82.00 67.32
83.00 215.31
84.00 38.58
85.00 450.88
97.00 190.18
98.00 250.17
99.00 258.10
110.00 6.99
111.00 107.81
112.00 48.25
113.00 135.44
125.00 67.27
127.00 128.77
141.00 67.60
155.00 78.05
168.00 59.17
169.00 51.68
