Name: In-silico spectrum 38
Formula:
MW:
CAS#:
Comments: in-silico spectrum
Num peaks: 25
27.00 87.94
29.00 147.49
39.00 101.99
41.00 403.78
42.00 67.68
43.00 832.79
53.00 81.70
55.00 208.73
56.00 204.27
57.00 1008.10
58.00 51.87
69.00 142.14
70.00 192.34
71.00 662.99
84.00 77.93
85.00 427.11
98.00 35.21
99.00 106.85
112.00 5.80
113.00 57.20
126.00 12.70
127.00 44.22
141.00 87.59
155.00 23.87
169.00 37.62
