Name: In-silico spectrum 42
Formula:
MW:
CAS#:
Comments: in-silico spectrum
Num peaks: 35
57.00 1402.76
411.00 5936.09
412.00 6283.29
413.00 7353.91
414.00 7927.10
415.00 7619.86
416.00 7181.72
417.00 7190.34
418.00 6731.22
419.00 6065.90
420.00 18713.22
421.00 24340.40
422.00 33801.91
423.00 37640.42
424.00 37142.52
425.00 36031.55
426.00 34192.70
427.00 32060.16
428.00 29738.49
431.00 1506.09
432.00 2633.53
433.00 3257.29
434.00 2581.63
435.00 3406.37
436.00 2739.92
437.00 2711.40
447.00 19423.37
448.00 16919.30
449.00 34768.97
450.00 52154.25
451.00 54733.35
452.00 53613.90
453.00 51506.75
454.00 49091.41
455.00 45941.43
