Name: In-silico spectrum 42
Formula:
MW:
CAS#:
Comments: in-silico spectrum
Num peaks: 32
29.00 0.11
39.00 37.40
41.00 281.75
42.00 63.35
43.00 620.12
54.00 17.46
55.00 324.18
56.00 186.92
57.00 989.97
58.00 44.88
68.00 33.98
69.00 237.99
70.00 139.50
71.00 681.13
81.00 41.73
82.00 51.88
83.00 199.94
84.00 59.78
85.00 492.98
97.00 167.59
98.00 57.65
99.00 187.39
110.00 11.79
111.00 96.45
112.00 21.90
113.00 131.31
125.00 51.21
127.00 87.42
141.00 124.29
155.00 58.21
168.00 91.78
169.00 122.15
