Name: In-silico spectrum 38
Formula:
MW:
CAS#:
Comments: in-silico spectrum
Num peaks: 24
27.00 150.42
29.00 204.48
39.00 112.81
41.00 444.11
42.00 128.15
43.00 867.43
54.00 23.65
55.00 191.41
56.00 241.98
57.00 958.79
58.00 22.28
68.00 0.49
69.00 92.33
70.00 138.69
71.00 614.08
84.00 73.51
85.00 393.19
98.00 213.86
99.00 141.44
112.00 25.92
113.00 27.37
127.00 66.95
141.00 9.27
155.00 35.08
