Name: In-silico spectrum 42
Formula:
MW:
CAS#:
Comments: in-silico spectrum
Num peaks: 109
28.00 2.59
29.00 32.64
39.00 14.31
40.00 4.66
41.00 239.30
42.00 59.63
43.00 633.25
44.00 18.71
53.00 10.52
54.00 10.18
55.00 199.85
56.00 146.36
57.00 830.63
58.00 39.05
65.00 1.00
67.00 13.48
68.00 13.17
69.00 118.45
70.00 104.68
71.00 578.95
72.00 30.68
81.00 7.69
83.00 70.23
84.00 56.14
85.00 395.41
86.00 25.89
91.00 4.03
96.00 16.35
97.00 74.57
98.00 40.21
99.00 143.53
100.00 13.18
110.00 6.86
111.00 38.55
112.00 31.38
113.00 103.15
114.00 9.79
124.00 4.90
125.00 22.69
126.00 25.91
127.00 76.27
128.00 8.18
138.00 0.64
139.00 8.92
140.00 22.55
141.00 58.47
142.00 6.57
152.00 0.58
153.00 6.18
154.00 21.17
155.00 49.11
156.00 6.04
167.00 4.02
168.00 40.79
169.00 42.94
170.00 4.81
182.00 12.79
183.00 33.46
184.00 3.89
196.00 29.10
197.00 32.17
198.00 2.92
210.00 17.35
211.00 30.04
212.00 1.60
224.00 37.86
225.00 33.41
226.00 6.69
238.00 18.33
239.00 38.76
240.00 6.28
252.00 21.91
253.00 27.61
254.00 2.11
266.00 15.82
267.00 24.67
268.00 4.86
280.00 18.78
281.00 27.52
282.00 5.09
294.00 19.36
295.00 33.96
296.00 11.29
308.00 13.96
309.00 24.44
310.00 4.58
322.00 7.85
323.00 18.79
324.00 5.37
336.00 13.64
337.00 19.85
338.00 6.25
350.00 10.60
351.00 24.55
352.00 7.18
364.00 1.54
365.00 7.34
366.00 1.88
379.00 7.28
392.00 1.85
393.00 8.25
394.00 2.94
421.00 4.89
435.00 1.14
449.00 4.81
450.00 1.74
463.00 1.70
464.00 0.18
477.00 3.46
