Name: In-silico spectrum 20
Formula:
MW:
CAS#:
Comments: in-silico spectrum
Num peaks: 33
27.00 35.66
29.00 100.43
39.00 68.28
41.00 388.50
42.00 91.87
43.00 833.52
53.00 63.89
54.00 12.63
55.00 278.70
56.00 172.99
57.00 1073.71
58.00 54.17
68.00 15.12
69.00 149.88
70.00 134.06
71.00 694.22
83.00 78.22
84.00 58.17
85.00 461.41
97.00 59.43
98.00 56.06
99.00 145.49
111.00 26.82
112.00 25.15
113.00 95.30
125.00 1.68
126.00 27.29
127.00 67.98
139.00 1.50
141.00 108.05
155.00 45.19
168.00 0.04
169.00 93.54
