Name: In-silico spectrum 38
Formula:
MW:
CAS#:
Comments: in-silico spectrum
Num peaks: 20
27.00 2.04
29.00 78.53
41.00 360.46
42.00 78.14
43.00 941.66
55.00 222.13
56.00 302.22
57.00 1254.47
58.00 41.62
69.00 94.00
70.00 198.99
71.00 823.01
84.00 60.04
85.00 593.71
98.00 16.94
99.00 215.30
111.00 6.38
113.00 106.75
127.00 70.17
141.00 138.03
