Name: In-silico spectrum 14
Formula:
MW:
CAS#:
Comments: in-silico spectrum
Num peaks: 21
27.00 149.73
29.00 219.44
39.00 122.69
41.00 405.15
42.00 91.72
43.00 982.12
53.00 75.35
55.00 139.94
56.00 159.69
57.00 853.67
58.00 44.41
69.00 65.77
70.00 131.80
71.00 460.13
84.00 114.26
85.00 376.16
98.00 26.72
99.00 54.55
126.00 6.80
127.00 3.49
141.00 50.59
