Name: In-silico spectrum 80
Formula:
MW:
CAS#:
Comments: in-silico spectrum
Num peaks: 30
27.00 18.98
29.00 81.89
39.00 59.82
41.00 373.34
42.00 89.38
43.00 816.29
54.00 16.70
55.00 294.21
56.00 176.43
57.00 1080.32
58.00 53.33
68.00 25.64
69.00 172.29
70.00 130.36
71.00 696.17
83.00 108.60
84.00 61.81
85.00 483.30
97.00 83.36
98.00 59.58
99.00 159.19
111.00 42.06
112.00 25.44
113.00 105.64
125.00 11.71
127.00 72.03
141.00 113.11
155.00 45.75
168.00 20.94
169.00 106.47
