Name: In-silico spectrum 80
Formula:
MW:
CAS#:
Comments: in-silico spectrum
Num peaks: 45
26.00 1.30
27.00 80.32
28.00 17.62
29.00 139.63
39.00 59.56
40.00 8.02
41.00 297.06
42.00 79.72
43.00 722.54
44.00 19.18
53.00 15.03
54.00 7.98
55.00 139.55
56.00 160.69
57.00 788.91
58.00 36.48
65.00 0.19
69.00 58.41
70.00 125.95
71.00 511.10
72.00 25.50
84.00 85.22
85.00 341.99
86.00 20.14
98.00 27.56
99.00 74.79
100.00 6.67
112.00 30.10
113.00 48.34
114.00 3.24
126.00 23.65
127.00 38.97
128.00 2.96
140.00 13.81
141.00 27.43
142.00 3.13
154.00 11.46
155.00 22.28
156.00 2.36
169.00 4.72
170.00 0.44
182.00 7.65
183.00 13.39
210.00 4.51
211.00 5.72
