Name: In-silico spectrum 88
Formula:
MW:
CAS#:
Comments: in-silico spectrum
Num peaks: 35
15.00 34.77
26.00 6.96
27.00 240.25
28.00 42.43
29.00 308.79
30.00 5.84
38.00 11.62
39.00 135.08
40.00 20.42
41.00 327.07
42.00 91.19
43.00 733.20
44.00 20.78
50.00 11.01
51.00 19.47
52.00 5.20
53.00 29.30
56.00 146.32
57.00 532.39
58.00 20.97
65.00 3.73
70.00 140.79
71.00 274.99
72.00 11.76
77.00 0.75
84.00 119.84
85.00 170.28
86.00 7.14
112.00 14.85
115.00 15.02
126.00 11.79
129.00 6.89
131.00 37.91
132.00 5.87
145.00 1.27
