Name: In-silico spectrum 88
Formula:
MW:
CAS#:
Comments: in-silico spectrum
Num peaks: 35
57.00 255.91
411.00 1103.16
412.00 1128.13
413.00 1362.72
414.00 1440.15
415.00 1408.82
416.00 1375.98
417.00 1368.15
418.00 1272.02
419.00 1163.74
420.00 3276.08
421.00 4252.10
422.00 5795.13
423.00 6483.99
424.00 6378.71
425.00 6204.92
426.00 5904.96
427.00 5569.07
428.00 5139.88
431.00 263.94
432.00 507.06
433.00 610.38
434.00 485.30
435.00 657.98
436.00 521.91
437.00 492.82
447.00 3385.91
448.00 2968.06
449.00 5985.16
450.00 8984.43
451.00 9447.27
452.00 9273.37
453.00 8896.04
454.00 8464.29
455.00 7868.92
