Name: In-silico spectrum 88
Formula:
MW:
CAS#:
Comments: in-silico spectrum
Num peaks: 20
27.00 234.80
29.00 272.52
39.00 191.36
41.00 426.70
42.00 103.13
43.00 935.61
53.00 109.92
55.00 147.13
56.00 288.23
57.00 543.97
58.00 28.07
68.00 10.17
69.00 239.16
70.00 238.24
71.00 180.13
84.00 241.71
85.00 357.37
98.00 45.07
99.00 13.02
141.00 22.39
