Name: In-silico spectrum 80
Formula:
MW:
CAS#:
Comments: in-silico spectrum
Num peaks: 35
57.00 1054.65
411.00 4470.53
412.00 4725.06
413.00 5538.20
414.00 5963.60
415.00 5738.08
416.00 5417.50
417.00 5422.38
418.00 5073.60
419.00 4575.18
420.00 14055.20
421.00 18279.67
422.00 25363.27
423.00 28249.98
424.00 27872.49
425.00 27041.70
426.00 25665.05
427.00 24071.09
428.00 22322.57
431.00 1130.98
432.00 1987.89
433.00 2454.30
434.00 1945.62
435.00 2569.99
436.00 2066.70
437.00 2039.44
447.00 14586.37
448.00 12708.52
449.00 26094.55
450.00 39143.07
451.00 41082.40
452.00 40245.12
453.00 38661.38
454.00 36845.39
455.00 34470.99
