Name: In-silico spectrum 88
Formula:
MW:
CAS#:
Comments: in-silico spectrum
Num peaks: 19
27.00 10.06
29.00 63.07
41.00 256.68
42.00 55.15
43.00 722.14
55.00 116.01
56.00 224.36
57.00 953.36
58.00 32.10
69.00 27.36
70.00 148.33
71.00 628.16
84.00 42.35
85.00 454.24
98.00 6.93
99.00 159.66
113.00 77.87
127.00 52.21
141.00 101.66
