Name: In-silico spectrum 80
Formula:
MW:
CAS#:
Comments: in-silico spectrum
Num peaks: 77
26.00 0.21
27.00 44.72
28.00 12.61
29.00 110.06
30.00 0.22
39.00 47.22
40.00 7.18
41.00 322.33
42.00 84.81
43.00 762.82
44.00 20.29
53.00 14.60
54.00 15.88
55.00 220.53
56.00 180.14
57.00 892.44
58.00 41.53
67.00 6.75
68.00 14.42
69.00 122.74
70.00 134.15
71.00 590.74
72.00 29.83
83.00 65.09
84.00 86.88
85.00 399.74
86.00 24.88
97.00 56.39
98.00 40.18
99.00 113.32
100.00 9.68
111.00 29.34
112.00 36.93
113.00 77.04
114.00 6.06
125.00 12.46
126.00 28.53
127.00 58.65
128.00 3.90
139.00 3.82
140.00 21.54
141.00 43.99
142.00 4.85
154.00 18.66
155.00 36.44
156.00 4.19
167.00 2.55
168.00 15.23
169.00 23.72
170.00 1.79
182.00 13.00
183.00 24.49
184.00 3.70
196.00 0.47
197.00 11.55
198.00 0.35
210.00 12.61
211.00 16.18
224.00 7.99
225.00 11.89
226.00 3.87
238.00 4.68
239.00 12.66
240.00 0.00
252.00 0.63
253.00 5.42
266.00 2.90
267.00 5.92
268.00 0.63
280.00 5.31
281.00 11.40
282.00 1.51
295.00 6.00
296.00 2.88
309.00 6.39
310.00 0.53
324.00 1.45
