Name: In-silico spectrum 47
Formula:
MW:
CAS#:
Comments: in-silico spectrum
Num peaks: 159
25.00 3.18
26.00 57.80
27.00 14.38
28.00 78.76
29.00 3.46
37.00 1.73
38.00 53.02
39.00 11.42
40.00 88.05
41.00 71.51
42.00 88.62
43.00 23.32
49.00 0.15
50.00 2.49
51.00 1.18
52.00 24.47
53.00 28.51
54.00 85.72
55.00 82.04
56.00 96.19
57.00 37.68
58.00 2.23
64.00 4.25
65.00 3.07
66.00 57.01
67.00 41.41
68.00 82.55
69.00 80.91
70.00 91.25
72.00 1.83
76.00 4.42
77.00 0.36
78.00 9.28
79.00 3.26
80.00 34.52
81.00 63.22
82.00 78.88
83.00 75.87
84.00 90.94
85.00 23.05
90.00 6.45
91.00 1.96
92.00 4.51
94.00 24.26
95.00 31.84
96.00 74.24
97.00 47.71
98.00 73.86
99.00 6.50
104.00 2.91
105.00 0.77
106.00 3.05
107.00 2.46
108.00 14.40
109.00 15.31
110.00 60.16
111.00 41.57
112.00 63.68
113.00 5.78
114.00 1.19
120.00 2.69
121.00 2.02
122.00 6.85
123.00 8.16
124.00 36.76
125.00 27.18
126.00 47.49
127.00 4.10
128.00 1.99
130.00 2.50
132.00 1.58
134.00 2.83
136.00 6.16
137.00 8.75
138.00 20.85
139.00 26.54
140.00 41.19
141.00 5.47
146.00 1.25
147.00 0.78
148.00 4.28
150.00 3.47
151.00 4.70
152.00 11.45
153.00 18.90
154.00 29.26
155.00 3.99
164.00 1.88
165.00 4.08
166.00 8.57
167.00 20.11
168.00 22.00
169.00 3.11
176.00 0.88
177.00 0.30
178.00 1.40
179.00 3.88
180.00 6.13
181.00 12.61
182.00 19.95
183.00 2.83
190.00 0.66
193.00 2.00
194.00 3.54
195.00 13.18
196.00 14.68
197.00 1.21
206.00 0.80
207.00 2.01
208.00 3.23
209.00 12.08
210.00 15.14
211.00 1.39
221.00 2.73
222.00 4.57
223.00 14.76
224.00 13.29
225.00 1.75
235.00 2.26
236.00 2.53
237.00 9.46
238.00 15.67
239.00 2.64
249.00 2.38
250.00 3.13
251.00 9.17
252.00 10.53
253.00 1.35
258.00 0.21
264.00 1.26
265.00 8.31
266.00 10.61
267.00 2.78
278.00 1.35
279.00 10.69
280.00 11.79
281.00 2.06
291.00 1.90
292.00 1.88
293.00 8.74
294.00 12.36
295.00 2.46
307.00 5.53
308.00 9.22
309.00 2.61
321.00 3.63
322.00 6.99
323.00 2.20
335.00 6.93
336.00 8.03
337.00 2.27
349.00 3.17
350.00 7.62
351.00 1.63
378.00 4.61
379.00 2.19
391.00 1.98
392.00 3.65
393.00 1.43
