Name: In-silico spectrum 80
Formula:
MW:
CAS#:
Comments: in-silico spectrum
Num peaks: 31
27.00 42.68
29.00 89.74
39.00 48.26
41.00 398.70
42.00 119.77
43.00 764.05
54.00 56.44
55.00 336.08
56.00 245.46
57.00 1041.63
58.00 27.70
68.00 47.96
69.00 216.33
70.00 116.64
71.00 673.66
82.00 38.46
83.00 176.63
84.00 53.90
85.00 443.34
97.00 146.90
98.00 255.72
99.00 227.82
111.00 87.41
112.00 45.95
113.00 101.46
125.00 54.33
127.00 113.09
141.00 49.75
155.00 64.25
168.00 31.85
169.00 27.78
