Name: In-silico spectrum 88
Formula:
MW:
CAS#:
Comments: in-silico spectrum
Num peaks: 35
15.00 23.52
26.00 8.86
27.00 221.26
28.00 40.63
29.00 292.82
30.00 6.68
38.00 7.20
39.00 125.13
40.00 19.46
41.00 360.05
42.00 97.75
43.00 759.46
44.00 21.50
50.00 4.44
51.00 15.69
52.00 6.54
53.00 30.72
55.00 51.37
56.00 167.92
57.00 592.84
58.00 24.36
65.00 4.98
70.00 152.81
71.00 319.29
72.00 15.05
84.00 126.96
85.00 203.01
86.00 11.21
98.00 4.11
112.00 23.45
115.00 8.72
126.00 16.91
129.00 0.51
131.00 30.85
132.00 2.49
