Name: In-silico spectrum 80
Formula:
MW:
CAS#:
Comments: in-silico spectrum
Num peaks: 21
29.00 73.90
41.00 432.29
42.00 93.90
43.00 1008.86
55.00 368.28
56.00 341.97
57.00 1372.39
58.00 44.99
69.00 206.08
70.00 222.86
71.00 895.68
83.00 51.45
84.00 72.08
85.00 645.54
97.00 77.36
98.00 34.18
99.00 247.16
111.00 68.68
113.00 127.35
127.00 80.24
141.00 157.56
