Name: In-silico spectrum 86
Formula:
MW:
CAS#:
Comments: in-silico spectrum
Num peaks: 19
29.00 18.33
41.00 236.01
42.00 50.43
43.00 523.69
55.00 202.13
56.00 199.22
57.00 831.96
69.00 125.37
70.00 72.11
71.00 525.03
83.00 52.32
84.00 45.49
85.00 369.82
97.00 54.58
98.00 4.81
99.00 150.24
113.00 72.18
127.00 51.93
141.00 14.38
