Name: In-silico spectrum 85
Formula:
MW:
CAS#:
Comments: in-silico spectrum
Num peaks: 145
28.00 3.23
29.00 27.18
39.00 17.89
40.00 10.34
41.00 354.70
42.00 78.91
43.00 656.41
44.00 23.62
53.00 21.85
54.00 36.48
55.00 461.33
56.00 196.42
57.00 879.43
58.00 41.12
65.00 5.34
66.00 2.42
67.00 106.95
68.00 68.88
69.00 325.81
70.00 136.60
71.00 586.15
72.00 29.98
77.00 4.44
79.00 22.08
80.00 5.90
81.00 77.54
82.00 155.67
83.00 345.40
84.00 78.67
85.00 402.47
86.00 26.95
91.00 18.50
92.00 0.78
93.00 6.49
95.00 58.90
96.00 70.26
97.00 253.66
98.00 64.63
99.00 158.32
100.00 14.31
109.00 36.30
110.00 37.64
111.00 144.39
112.00 42.13
113.00 111.58
114.00 10.15
123.00 14.26
124.00 22.36
125.00 79.31
126.00 32.36
127.00 79.09
128.00 8.61
137.00 6.56
138.00 13.56
139.00 36.92
140.00 35.10
141.00 63.53
142.00 6.44
149.00 6.07
151.00 1.74
152.00 12.24
153.00 28.88
154.00 28.32
155.00 51.89
156.00 4.89
165.00 0.23
166.00 4.94
167.00 16.94
168.00 57.66
169.00 49.99
170.00 4.51
180.00 6.13
181.00 10.80
182.00 18.40
183.00 34.29
184.00 4.98
195.00 8.39
196.00 44.39
197.00 37.89
198.00 4.27
204.00 0.64
208.00 2.44
209.00 6.68
210.00 25.53
211.00 31.50
217.00 6.25
218.00 0.43
222.00 10.86
223.00 16.19
224.00 56.01
225.00 42.55
226.00 9.50
236.00 4.44
237.00 5.69
238.00 28.17
239.00 43.05
240.00 6.01
250.00 2.50
251.00 2.75
252.00 33.55
253.00 35.32
254.00 3.93
266.00 29.33
267.00 34.63
268.00 6.22
280.00 33.16
281.00 35.13
282.00 4.19
292.00 1.25
293.00 3.43
294.00 40.60
295.00 50.82
296.00 14.37
308.00 21.31
309.00 29.40
310.00 4.34
321.00 3.27
322.00 15.75
323.00 24.39
324.00 5.85
336.00 22.71
337.00 27.63
338.00 6.81
350.00 16.13
351.00 32.46
352.00 7.69
364.00 13.72
365.00 18.82
366.00 2.05
379.00 11.08
392.00 4.46
393.00 13.10
394.00 3.19
400.00 1.59
407.00 4.39
412.00 5.11
420.00 3.99
421.00 8.15
435.00 2.58
449.00 9.39
450.00 1.32
463.00 10.80
477.00 8.31
505.00 5.66
519.00 1.25
