Name: In-silico spectrum 86
Formula:
MW:
CAS#:
Comments: in-silico spectrum
Num peaks: 83
27.00 24.74
28.00 8.47
29.00 75.36
39.00 31.82
40.00 5.04
41.00 264.25
42.00 68.68
43.00 680.26
44.00 18.69
53.00 11.19
54.00 9.99
55.00 175.27
56.00 153.65
57.00 830.35
58.00 39.12
67.00 0.07
68.00 6.79
69.00 92.65
70.00 113.63
71.00 563.79
72.00 29.07
83.00 32.85
84.00 67.90
85.00 382.17
86.00 23.92
96.00 0.46
97.00 41.01
98.00 35.81
99.00 119.04
100.00 10.84
111.00 19.06
112.00 31.52
113.00 83.43
114.00 7.39
125.00 9.81
126.00 25.30
127.00 62.90
128.00 5.81
139.00 2.62
140.00 19.21
141.00 47.05
142.00 5.28
154.00 17.63
155.00 39.50
156.00 4.85
167.00 0.91
168.00 22.11
169.00 28.90
170.00 3.35
182.00 11.17
183.00 26.35
184.00 2.59
196.00 9.86
197.00 18.86
210.00 12.64
211.00 21.17
212.00 0.60
224.00 17.50
225.00 18.85
226.00 4.28
238.00 8.61
239.00 23.17
240.00 3.02
252.00 6.85
253.00 12.80
266.00 5.93
267.00 12.10
268.00 2.23
280.00 8.36
281.00 15.94
282.00 2.80
294.00 3.16
295.00 15.52
296.00 6.26
308.00 3.90
309.00 12.04
310.00 1.41
323.00 5.84
324.00 1.73
337.00 4.67
338.00 1.11
351.00 7.39
352.00 0.95
