Name: In-silico spectrum 61
Formula:
MW:
CAS#:
Comments: in-silico spectrum
Num peaks: 35
57.00 1001.10
411.00 4245.83
412.00 4485.46
413.00 5259.67
414.00 5661.92
415.00 5449.29
416.00 5147.53
417.00 5151.81
418.00 4819.70
419.00 4347.10
420.00 13337.53
421.00 17345.81
422.00 24061.23
423.00 26801.60
424.00 26442.39
425.00 25655.06
426.00 24349.95
427.00 22839.46
428.00 21178.92
431.00 1073.26
432.00 1889.19
433.00 2331.29
434.00 1848.10
435.00 2442.21
436.00 1963.78
437.00 1936.12
447.00 13840.93
448.00 12059.84
449.00 24756.67
450.00 37136.20
451.00 38977.11
452.00 38183.58
453.00 36680.33
454.00 34956.59
455.00 32701.02
