Name: In-silico spectrum 10
Formula:
MW:
CAS#:
Comments: in-silico spectrum
Num peaks: 113
28.00 4.03
29.00 47.48
39.00 22.43
40.00 5.88
41.00 299.52
42.00 75.48
43.00 720.20
44.00 20.78
53.00 13.10
54.00 19.49
55.00 275.52
56.00 177.52
57.00 932.53
58.00 43.76
65.00 0.68
67.00 30.73
68.00 27.06
69.00 172.55
70.00 125.12
71.00 638.77
72.00 32.90
81.00 9.66
82.00 24.37
83.00 132.90
84.00 71.89
85.00 437.35
86.00 28.38
91.00 2.52
96.00 24.91
97.00 115.76
98.00 49.47
99.00 155.78
100.00 13.79
110.00 8.30
111.00 63.43
112.00 38.65
113.00 110.64
114.00 9.82
124.00 5.35
125.00 34.98
126.00 30.50
127.00 81.10
128.00 6.70
138.00 0.81
139.00 15.15
140.00 27.58
141.00 62.66
142.00 6.88
152.00 1.78
153.00 9.75
154.00 25.14
155.00 52.83
156.00 6.31
166.00 0.87
167.00 7.35
168.00 45.40
169.00 46.63
170.00 4.51
181.00 2.07
182.00 16.45
183.00 35.36
184.00 5.97
195.00 1.31
196.00 30.83
197.00 33.23
198.00 4.48
210.00 20.42
211.00 30.92
212.00 0.71
223.00 0.34
224.00 40.70
225.00 36.02
226.00 8.60
238.00 20.17
239.00 38.77
240.00 5.79
252.00 23.80
253.00 28.93
254.00 2.78
266.00 18.40
267.00 26.35
268.00 5.64
280.00 22.00
281.00 29.93
282.00 5.28
294.00 23.29
295.00 36.98
296.00 12.08
308.00 14.53
309.00 25.31
310.00 4.82
322.00 7.89
323.00 18.34
324.00 6.86
336.00 13.37
337.00 19.24
338.00 5.61
350.00 9.90
351.00 24.36
352.00 6.02
364.00 4.03
365.00 8.77
366.00 1.05
379.00 4.25
392.00 2.11
393.00 7.64
394.00 1.81
421.00 5.84
435.00 0.05
449.00 3.81
450.00 0.48
463.00 4.45
477.00 3.32
