Name: In-silico spectrum 10
Formula:
MW:
CAS#:
Comments: in-silico spectrum
Num peaks: 32
29.00 38.96
39.00 49.44
41.00 354.41
42.00 83.96
43.00 756.47
54.00 23.54
55.00 368.32
56.00 185.05
57.00 1073.23
58.00 49.56
68.00 33.34
69.00 231.49
70.00 137.13
71.00 709.53
81.00 20.93
82.00 67.95
83.00 221.24
84.00 68.21
85.00 513.47
97.00 159.25
98.00 64.97
99.00 183.15
110.00 1.09
111.00 87.67
112.00 26.85
113.00 124.43
125.00 41.93
127.00 84.04
141.00 126.87
155.00 53.84
168.00 71.77
169.00 124.82
