Name: In-silico spectrum 61
Formula:
MW:
CAS#:
Comments: in-silico spectrum
Num peaks: 71
26.00 0.56
27.00 51.82
28.00 13.62
29.00 117.27
30.00 0.51
39.00 50.16
40.00 7.44
41.00 321.82
42.00 85.05
43.00 761.38
44.00 20.14
53.00 14.85
54.00 14.90
55.00 209.95
56.00 178.70
57.00 878.75
58.00 40.82
67.00 3.12
68.00 12.33
69.00 114.16
70.00 134.12
71.00 579.00
72.00 29.16
83.00 54.09
84.00 87.98
85.00 391.19
86.00 24.22
97.00 47.11
98.00 38.37
99.00 106.64
100.00 9.02
111.00 24.01
112.00 36.21
113.00 71.88
114.00 5.47
125.00 9.08
126.00 27.92
127.00 55.13
128.00 3.57
139.00 2.14
140.00 20.47
141.00 41.13
142.00 4.55
154.00 17.56
155.00 33.92
156.00 3.83
167.00 1.83
168.00 11.06
169.00 20.38
170.00 1.36
182.00 12.21
183.00 22.69
184.00 3.29
197.00 8.52
210.00 11.30
211.00 14.00
224.00 3.54
225.00 8.53
226.00 3.16
238.00 2.48
239.00 9.08
253.00 2.22
266.00 0.71
267.00 3.08
280.00 2.99
281.00 8.78
282.00 0.95
295.00 1.80
296.00 1.60
309.00 3.81
324.00 0.71
