Name: In-silico spectrum 10
Formula:
MW:
CAS#:
Comments: in-silico spectrum
Num peaks: 35
57.00 1237.16
411.00 5240.51
412.00 5541.60
413.00 6492.00
414.00 6993.18
415.00 6726.38
416.00 6346.62
417.00 6353.09
418.00 5945.59
419.00 5360.26
420.00 16491.38
421.00 21448.76
422.00 29769.75
423.00 33155.24
424.00 32714.01
425.00 31737.60
426.00 30120.51
427.00 28246.82
428.00 26197.30
431.00 1327.19
432.00 2328.27
433.00 2876.43
434.00 2279.85
435.00 3010.65
436.00 2421.28
437.00 2391.75
447.00 17115.23
448.00 14910.94
449.00 30625.72
450.00 45939.75
451.00 48214.16
452.00 47230.58
453.00 45372.71
454.00 43242.69
455.00 40460.42
