Name: In-silico spectrum 61
Formula:
MW:
CAS#:
Comments: in-silico spectrum
Num peaks: 46
26.00 1.56
27.00 87.61
28.00 18.79
29.00 147.66
39.00 63.07
40.00 8.41
41.00 299.39
42.00 80.65
43.00 724.42
44.00 19.15
51.00 0.18
53.00 15.49
54.00 7.47
55.00 132.63
56.00 160.60
57.00 778.92
58.00 35.89
65.00 0.23
69.00 52.46
70.00 126.88
71.00 501.24
72.00 24.88
84.00 87.07
85.00 334.75
86.00 19.55
98.00 26.16
99.00 68.35
100.00 6.06
112.00 29.64
113.00 43.29
114.00 2.65
126.00 23.24
127.00 35.51
128.00 2.56
140.00 12.95
141.00 24.60
142.00 2.82
154.00 10.51
155.00 19.81
156.00 1.99
169.00 1.36
170.00 0.02
182.00 7.04
183.00 11.49
210.00 3.31
211.00 3.54
