Name: In-silico spectrum 10
Formula:
MW:
CAS#:
Comments: in-silico spectrum
Num peaks: 84
27.00 28.84
28.00 9.42
29.00 80.04
39.00 34.35
40.00 6.25
41.00 272.00
42.00 70.18
43.00 680.53
44.00 19.11
53.00 12.93
54.00 10.50
55.00 185.90
56.00 156.39
57.00 823.82
58.00 38.54
65.00 0.82
67.00 3.94
68.00 8.38
69.00 101.50
70.00 116.45
71.00 556.19
72.00 28.71
83.00 43.77
84.00 70.32
85.00 376.64
86.00 23.57
96.00 1.11
97.00 46.47
98.00 36.23
99.00 115.51
100.00 10.54
111.00 22.61
112.00 31.76
113.00 80.48
114.00 7.00
125.00 11.22
126.00 25.50
127.00 60.77
128.00 5.96
139.00 3.48
140.00 19.54
141.00 45.75
142.00 5.17
154.00 17.61
155.00 37.99
156.00 4.52
167.00 1.68
168.00 20.32
169.00 27.02
170.00 3.01
182.00 11.04
183.00 25.25
184.00 2.40
196.00 7.98
197.00 17.06
210.00 12.49
211.00 19.95
212.00 0.20
224.00 15.47
225.00 17.02
226.00 3.78
238.00 7.66
239.00 21.26
240.00 2.58
252.00 5.49
253.00 11.36
266.00 5.19
267.00 10.73
268.00 1.78
280.00 7.66
281.00 14.83
282.00 2.50
294.00 2.00
295.00 13.64
296.00 5.78
308.00 2.86
309.00 10.62
310.00 1.04
323.00 4.53
324.00 1.32
337.00 2.95
338.00 0.51
351.00 5.51
352.00 0.23
