Name: In-silico spectrum 51
Formula:
MW:
CAS#:
Comments: in-silico spectrum
Num peaks: 19
41.00 228.21
42.00 46.16
43.00 531.35
55.00 210.88
56.00 211.21
57.00 890.52
69.00 146.51
70.00 75.28
71.00 577.45
83.00 55.63
84.00 45.74
85.00 413.32
97.00 73.20
98.00 5.92
99.00 174.58
111.00 2.23
113.00 89.11
127.00 68.51
141.00 38.18
