Name: In-silico spectrum 61
Formula:
MW:
CAS#:
Comments: in-silico spectrum
Num peaks: 34
27.00 20.73
29.00 80.00
39.00 61.78
41.00 364.14
42.00 86.67
43.00 799.52
53.00 60.71
54.00 13.17
55.00 279.05
56.00 176.57
57.00 1073.69
58.00 53.35
68.00 21.05
69.00 162.95
70.00 132.61
71.00 700.74
83.00 92.53
84.00 56.90
85.00 476.44
97.00 79.56
98.00 57.02
99.00 158.66
111.00 37.45
112.00 25.19
113.00 105.91
125.00 11.23
126.00 27.41
127.00 73.74
139.00 9.16
140.00 5.80
141.00 112.08
155.00 49.25
168.00 19.41
169.00 101.47
