Name: In-silico spectrum 51
Formula:
MW:
CAS#:
Comments: in-silico spectrum
Num peaks: 126
40.00 4.96
41.00 260.69
42.00 62.52
43.00 663.50
44.00 21.00
53.00 11.11
54.00 19.38
55.00 296.30
56.00 166.45
57.00 946.45
58.00 44.50
65.00 1.25
67.00 44.09
68.00 33.21
69.00 196.44
70.00 111.11
71.00 669.77
72.00 34.99
79.00 7.24
81.00 41.61
82.00 41.10
83.00 167.02
84.00 54.87
85.00 463.59
86.00 31.47
91.00 10.88
95.00 25.71
96.00 45.36
97.00 151.99
98.00 53.99
99.00 190.83
100.00 16.93
109.00 7.96
110.00 24.06
111.00 84.25
112.00 38.44
113.00 138.88
114.00 13.02
124.00 13.36
125.00 49.48
126.00 30.69
127.00 100.34
128.00 9.19
138.00 6.76
139.00 22.67
140.00 31.03
141.00 78.03
142.00 8.35
152.00 7.16
153.00 18.48
154.00 29.61
155.00 66.32
156.00 7.59
166.00 1.96
167.00 10.59
168.00 71.51
169.00 66.17
170.00 6.75
181.00 5.13
182.00 18.19
183.00 44.31
184.00 7.45
195.00 5.76
196.00 57.58
197.00 52.31
198.00 7.88
209.00 2.37
210.00 25.55
211.00 42.99
212.00 1.54
222.00 4.54
223.00 8.55
224.00 69.31
225.00 56.92
226.00 12.22
236.00 0.22
237.00 1.87
238.00 32.75
239.00 61.87
240.00 10.71
250.00 1.02
252.00 44.41
253.00 49.47
254.00 6.52
266.00 31.27
267.00 43.64
268.00 9.34
280.00 35.80
281.00 45.41
282.00 8.06
294.00 45.54
295.00 63.29
296.00 19.40
308.00 28.39
309.00 41.63
310.00 8.04
322.00 22.11
323.00 36.03
324.00 11.48
336.00 32.79
337.00 40.67
338.00 11.77
350.00 25.03
351.00 48.39
352.00 15.12
364.00 17.16
365.00 27.48
366.00 7.12
378.00 6.22
379.00 20.74
380.00 1.62
392.00 11.86
393.00 23.24
394.00 8.67
400.00 0.08
407.00 7.67
420.00 0.81
421.00 14.34
435.00 8.77
449.00 16.34
450.00 8.41
463.00 15.25
464.00 3.33
477.00 16.03
505.00 13.09
519.00 8.73
