Name: In-silico spectrum 10
Formula:
MW:
CAS#:
Comments: in-silico spectrum
Num peaks: 19
29.00 15.20
41.00 182.43
42.00 40.38
43.00 440.17
55.00 208.86
56.00 126.04
57.00 703.38
69.00 117.76
70.00 72.46
71.00 486.90
83.00 139.76
84.00 31.81
85.00 320.66
97.00 79.52
99.00 110.88
111.00 36.17
113.00 92.51
127.00 64.08
141.00 11.01
