Name: In-silico spectrum 51
Formula:
MW:
CAS#:
Comments: in-silico spectrum
Num peaks: 31
29.00 10.07
39.00 6.79
41.00 343.26
42.00 107.71
43.00 677.89
54.00 66.74
55.00 376.63
56.00 243.28
57.00 1079.50
58.00 31.03
68.00 61.32
69.00 261.71
70.00 105.76
71.00 721.94
82.00 86.55
83.00 250.25
84.00 40.70
85.00 480.82
97.00 217.76
98.00 266.73
99.00 278.32
110.00 11.11
111.00 123.80
112.00 52.98
113.00 148.46
125.00 77.34
127.00 139.57
141.00 75.84
155.00 84.66
168.00 66.64
169.00 57.87
