Name: In-silico spectrum 50
Formula:
MW:
CAS#:
Comments: in-silico spectrum
Num peaks: 21
29.00 72.85
41.00 471.88
42.00 102.38
43.00 1084.61
55.00 420.83
56.00 373.09
57.00 1490.29
58.00 49.01
69.00 241.57
70.00 241.35
71.00 974.62
83.00 84.27
84.00 77.73
85.00 702.47
97.00 101.62
98.00 39.94
99.00 273.13
111.00 85.42
113.00 142.28
127.00 89.21
141.00 173.76
