Name: In-silico spectrum 50
Formula:
MW:
CAS#:
Comments: in-silico spectrum
Num peaks: 32
29.00 0.44
39.00 39.06
41.00 306.36
42.00 70.17
43.00 685.36
54.00 20.52
55.00 360.08
56.00 195.80
57.00 1068.90
58.00 48.00
68.00 39.23
69.00 259.35
70.00 141.59
71.00 728.23
81.00 47.63
82.00 71.49
83.00 228.80
84.00 65.55
85.00 536.37
97.00 192.23
98.00 63.39
99.00 203.47
110.00 13.69
111.00 109.63
112.00 23.77
113.00 140.25
125.00 58.46
127.00 94.99
141.00 132.75
155.00 61.83
168.00 102.30
169.00 133.54
