Name: In-silico spectrum 50
Formula:
MW:
CAS#:
Comments: in-silico spectrum
Num peaks: 133
40.00 4.51
41.00 256.00
42.00 61.20
43.00 647.02
44.00 20.66
53.00 10.39
54.00 20.74
55.00 305.70
56.00 164.72
57.00 936.30
58.00 44.13
65.00 1.18
67.00 49.17
68.00 36.23
69.00 205.45
70.00 108.63
71.00 663.87
72.00 34.59
73.00 1.26
79.00 10.56
80.00 0.10
81.00 47.41
82.00 51.05
83.00 181.93
84.00 52.84
85.00 460.35
86.00 31.42
91.00 12.15
95.00 32.12
96.00 49.96
97.00 163.10
98.00 55.21
99.00 193.31
100.00 17.23
109.00 15.16
110.00 27.02
111.00 90.89
112.00 38.58
113.00 140.69
114.00 13.12
123.00 2.44
124.00 14.66
125.00 53.73
126.00 30.73
127.00 101.38
128.00 9.18
138.00 7.80
139.00 24.92
140.00 31.82
141.00 79.20
142.00 8.50
152.00 8.02
153.00 20.41
154.00 30.14
155.00 67.07
156.00 7.61
166.00 2.56
167.00 11.68
168.00 74.84
169.00 68.29
170.00 7.11
180.00 0.75
181.00 6.52
182.00 18.54
183.00 44.79
184.00 7.60
195.00 7.06
196.00 61.40
197.00 54.68
198.00 8.37
208.00 0.52
209.00 3.62
210.00 26.69
211.00 44.35
212.00 1.71
222.00 6.58
223.00 11.04
224.00 73.63
225.00 59.81
226.00 12.96
236.00 1.50
237.00 3.43
238.00 34.56
239.00 64.27
240.00 11.04
250.00 2.28
252.00 47.33
253.00 51.97
254.00 7.13
266.00 33.40
267.00 45.90
268.00 9.78
280.00 38.10
281.00 47.33
282.00 8.37
293.00 0.48
294.00 49.38
295.00 67.03
296.00 20.42
308.00 30.46
309.00 43.58
310.00 8.49
321.00 0.40
322.00 24.29
323.00 38.38
324.00 12.06
336.00 35.62
337.00 43.67
338.00 12.53
350.00 27.07
351.00 51.23
352.00 16.05
364.00 19.43
365.00 30.22
366.00 8.02
378.00 7.86
379.00 22.99
380.00 3.09
392.00 13.09
393.00 25.19
394.00 9.38
400.00 1.37
407.00 9.42
420.00 2.67
421.00 15.46
435.00 10.28
449.00 18.24
450.00 9.37
463.00 17.10
464.00 4.53
477.00 17.66
505.00 16.34
519.00 10.52
