Name: In-silico spectrum 50
Formula:
MW:
CAS#:
Comments: in-silico spectrum
Num peaks: 35
39.00 40.40
41.00 302.28
42.00 69.37
43.00 688.61
53.00 57.03
54.00 19.77
55.00 362.31
56.00 201.72
57.00 1084.99
58.00 47.85
68.00 39.62
69.00 268.44
70.00 145.90
71.00 744.33
81.00 49.84
82.00 71.37
83.00 235.26
84.00 66.25
85.00 547.14
97.00 204.26
98.00 63.53
99.00 208.12
110.00 12.29
111.00 113.07
112.00 25.81
113.00 145.30
125.00 59.50
126.00 27.91
127.00 98.17
139.00 51.01
140.00 47.63
141.00 136.84
155.00 62.21
168.00 109.07
169.00 133.70
