Name: In-silico spectrum 50
Formula:
MW:
CAS#:
Comments: in-silico spectrum
Num peaks: 19
41.00 220.89
42.00 44.14
43.00 510.16
55.00 209.65
56.00 199.25
57.00 846.75
69.00 146.39
70.00 67.81
71.00 544.41
83.00 66.80
84.00 42.31
85.00 392.42
97.00 80.72
98.00 7.63
99.00 166.10
111.00 10.51
113.00 84.96
127.00 63.21
141.00 37.21
