Name: In-silico spectrum 50
Formula:
MW:
CAS#:
Comments: in-silico spectrum
Num peaks: 31
29.00 2.59
39.00 1.68
41.00 336.85
42.00 107.35
43.00 672.07
54.00 68.05
55.00 381.79
56.00 243.28
57.00 1086.57
58.00 31.60
68.00 63.19
69.00 265.63
70.00 102.46
71.00 726.27
82.00 94.36
83.00 261.02
84.00 39.54
85.00 483.89
97.00 228.43
98.00 269.45
99.00 284.35
110.00 12.29
111.00 128.46
112.00 54.02
113.00 152.78
125.00 80.46
127.00 142.59
141.00 77.75
155.00 86.18
168.00 70.49
169.00 60.94
