Name: In-silico spectrum 50
Formula:
MW:
CAS#:
Comments: in-silico spectrum
Num peaks: 121
40.00 3.18
41.00 227.34
42.00 54.53
43.00 614.69
44.00 18.99
53.00 8.75
54.00 12.86
55.00 238.02
56.00 146.22
57.00 866.50
58.00 40.96
65.00 1.07
67.00 28.61
68.00 21.89
69.00 152.14
70.00 99.66
71.00 617.12
72.00 33.10
79.00 0.94
81.00 30.86
82.00 15.87
83.00 116.85
84.00 47.39
85.00 424.49
86.00 28.70
91.00 9.29
95.00 15.36
96.00 33.62
97.00 114.89
98.00 47.01
99.00 173.16
100.00 15.87
110.00 17.28
111.00 61.50
112.00 33.44
113.00 126.27
114.00 12.50
124.00 10.67
125.00 37.54
126.00 27.81
127.00 92.20
128.00 10.13
138.00 4.72
139.00 15.79
140.00 27.08
141.00 71.72
142.00 8.05
152.00 4.35
153.00 13.88
154.00 25.59
155.00 60.22
156.00 7.50
166.00 0.75
167.00 7.33
168.00 61.14
169.00 58.87
170.00 6.65
181.00 1.35
182.00 15.61
183.00 42.14
184.00 5.34
195.00 3.26
196.00 49.40
197.00 46.85
198.00 6.04
209.00 1.95
210.00 23.25
211.00 40.15
212.00 2.96
222.00 2.85
223.00 5.44
224.00 59.72
225.00 49.44
226.00 9.79
237.00 0.37
238.00 28.97
239.00 55.38
240.00 9.48
252.00 37.80
253.00 43.33
254.00 5.24
266.00 26.53
267.00 38.32
268.00 7.75
280.00 30.40
281.00 40.38
282.00 7.67
294.00 36.62
295.00 53.77
296.00 16.81
308.00 24.75
309.00 37.59
310.00 7.89
322.00 18.80
323.00 31.93
324.00 9.30
336.00 28.08
337.00 35.66
338.00 11.50
350.00 21.96
351.00 42.28
352.00 13.59
364.00 12.51
365.00 22.10
366.00 5.77
378.00 4.29
379.00 18.45
392.00 10.10
393.00 20.16
394.00 7.59
407.00 6.10
421.00 11.49
422.00 2.34
435.00 7.41
449.00 13.68
450.00 6.91
463.00 10.14
464.00 5.31
477.00 12.80
505.00 9.23
519.00 6.19
