Name: In-silico spectrum 48
Formula:
MW:
CAS#:
Comments: in-silico spectrum
Num peaks: 30
27.00 26.31
29.00 92.46
39.00 62.45
41.00 381.05
42.00 91.40
43.00 832.56
54.00 15.87
55.00 285.20
56.00 173.31
57.00 1078.79
58.00 53.81
68.00 23.12
69.00 161.10
70.00 128.89
71.00 690.26
83.00 92.41
84.00 61.45
85.00 475.34
97.00 69.69
98.00 58.78
99.00 152.61
111.00 33.91
112.00 25.13
113.00 100.13
125.00 5.49
127.00 68.80
141.00 110.19
155.00 43.25
168.00 9.40
169.00 101.96
