Name: In-silico spectrum 48
Formula:
MW:
CAS#:
Comments: in-silico spectrum
Num peaks: 21
29.00 74.39
41.00 429.00
42.00 93.19
43.00 1005.84
55.00 361.29
56.00 339.98
57.00 1366.48
58.00 44.80
69.00 200.75
70.00 221.76
71.00 891.82
83.00 44.23
84.00 71.57
85.00 642.78
97.00 72.79
98.00 33.33
99.00 245.43
111.00 65.71
113.00 126.21
127.00 79.64
141.00 156.55
