Name: In-silico spectrum 65
Formula:
MW:
CAS#:
Comments: in-silico spectrum
Num peaks: 28
27.00 146.94
29.00 207.66
39.00 109.06
41.00 474.46
42.00 137.87
43.00 900.67
54.00 33.95
55.00 251.79
56.00 258.49
57.00 1006.36
58.00 23.25
68.00 13.35
69.00 135.32
70.00 140.50
71.00 628.44
83.00 33.04
84.00 81.30
85.00 406.90
97.00 27.66
98.00 235.54
99.00 153.18
111.00 23.30
112.00 35.46
113.00 32.32
125.00 11.45
127.00 74.23
141.00 12.96
155.00 37.37
