Name: In-silico spectrum 24
Formula:
MW:
CAS#:
Comments: in-silico spectrum
Num peaks: 30
27.00 128.25
29.00 220.50
39.00 117.57
41.00 749.98
42.00 159.61
43.00 707.18
54.00 112.91
55.00 990.49
56.00 327.25
57.00 733.89
58.00 18.52
67.00 313.45
68.00 189.74
69.00 708.18
70.00 194.14
71.00 307.59
81.00 191.18
82.00 505.92
83.00 875.87
84.00 155.79
85.00 216.09
95.00 152.18
97.00 526.42
98.00 271.62
99.00 84.59
110.00 56.19
111.00 306.38
112.00 62.51
125.00 161.69
127.00 4.20
