Name: In-silico spectrum 34
Formula:
MW:
CAS#:
Comments: in-silico spectrum
Num peaks: 22
27.00 51.13
29.00 145.47
39.00 11.46
41.00 412.95
42.00 45.17
43.00 420.24
54.00 28.28
55.00 725.71
56.00 107.99
57.00 546.26
67.00 262.65
69.00 295.34
70.00 46.44
71.00 254.96
82.00 776.38
83.00 800.76
84.00 72.82
85.00 152.22
97.00 220.56
99.00 11.16
111.00 173.22
125.00 26.03
