Name: In-silico spectrum 34
Formula:
MW:
CAS#:
Comments: in-silico spectrum
Num peaks: 35
57.00 929.71
411.00 3951.71
412.00 4164.44
413.00 4894.26
414.00 5260.24
415.00 5070.35
416.00 4801.71
417.00 4803.70
418.00 4490.75
419.00 4054.59
420.00 12360.27
421.00 16072.67
422.00 22266.08
423.00 24811.18
424.00 24473.65
425.00 23748.53
426.00 22544.36
427.00 21154.32
428.00 19609.11
431.00 994.75
432.00 1763.77
433.00 2170.80
434.00 1721.20
435.00 2279.23
436.00 1832.09
437.00 1797.95
447.00 12823.69
448.00 11177.68
449.00 22917.07
450.00 34378.26
451.00 36087.55
452.00 35357.67
453.00 33962.27
454.00 32361.57
455.00 30259.51
