Name: In-silico spectrum 34
Formula:
MW:
CAS#:
Comments: in-silico spectrum
Num peaks: 77
26.00 8.09
27.00 113.65
28.00 37.63
29.00 208.50
30.00 3.52
39.00 100.45
40.00 25.39
41.00 597.09
42.00 129.00
43.00 665.80
44.00 25.33
51.00 6.89
53.00 50.43
54.00 69.73
55.00 764.65
56.00 275.01
57.00 634.84
58.00 27.38
65.00 13.18
66.00 7.81
67.00 213.29
68.00 132.17
69.00 559.15
70.00 214.73
71.00 304.03
72.00 15.32
77.00 13.68
79.00 13.49
81.00 97.85
82.00 366.19
83.00 662.96
84.00 159.63
85.00 194.51
86.00 11.07
91.00 15.64
95.00 69.08
96.00 81.90
97.00 405.88
98.00 78.65
99.00 23.43
100.00 1.67
109.00 27.55
110.00 36.21
111.00 238.13
112.00 54.33
113.00 3.32
115.00 0.57
124.00 22.93
125.00 115.44
126.00 33.61
128.00 1.65
131.00 17.24
137.00 9.89
138.00 16.28
139.00 57.54
140.00 37.37
141.00 2.69
152.00 13.74
153.00 39.72
154.00 19.77
166.00 12.62
167.00 29.52
180.00 9.85
181.00 15.87
182.00 15.69
195.00 9.23
208.00 0.77
209.00 8.08
210.00 15.40
222.00 7.47
223.00 13.94
236.00 4.48
237.00 3.51
251.00 5.33
266.00 2.20
280.00 4.56
420.00 0.76
