Name: In-silico spectrum 24
Formula:
MW:
CAS#:
Comments: in-silico spectrum
Num peaks: 28
29.00 110.68
41.00 681.54
42.00 126.21
43.00 829.46
55.00 1003.99
56.00 370.39
57.00 1047.07
58.00 20.34
67.00 238.71
68.00 117.29
69.00 706.25
70.00 242.83
71.00 595.81
81.00 75.33
82.00 486.91
83.00 856.72
84.00 120.84
85.00 419.84
95.00 0.08
96.00 23.52
97.00 553.84
98.00 94.67
99.00 172.96
111.00 367.59
113.00 80.72
125.00 114.45
127.00 25.08
141.00 95.58
