Name: In-silico spectrum 24
Formula:
MW:
CAS#:
Comments: in-silico spectrum
Num peaks: 77
26.00 8.24
27.00 116.15
28.00 37.95
29.00 210.35
30.00 3.65
39.00 101.18
40.00 25.44
41.00 592.82
42.00 128.28
43.00 659.81
44.00 25.09
51.00 7.28
53.00 50.35
54.00 68.82
55.00 755.23
56.00 272.67
57.00 623.48
58.00 26.83
65.00 13.21
66.00 7.61
67.00 210.39
68.00 130.42
69.00 552.18
70.00 213.39
71.00 296.07
72.00 14.91
77.00 13.70
79.00 12.41
81.00 95.22
82.00 361.59
83.00 654.28
84.00 159.15
85.00 189.01
86.00 10.71
91.00 15.16
95.00 66.64
96.00 79.72
97.00 399.46
98.00 77.37
99.00 20.27
100.00 1.36
109.00 25.33
110.00 35.00
111.00 234.50
112.00 53.69
113.00 0.98
115.00 1.21
124.00 22.29
125.00 113.36
126.00 33.15
128.00 1.55
131.00 18.30
137.00 8.79
138.00 15.83
139.00 56.62
140.00 36.77
141.00 1.43
152.00 13.37
153.00 38.96
154.00 19.25
166.00 12.44
167.00 29.17
180.00 9.51
181.00 15.40
182.00 15.26
195.00 8.92
208.00 0.53
209.00 7.75
210.00 14.81
222.00 6.91
223.00 13.26
236.00 4.13
237.00 3.07
251.00 5.02
266.00 1.23
280.00 3.54
420.00 0.36
