Name: In-silico spectrum 34
Formula:
MW:
CAS#:
Comments: in-silico spectrum
Num peaks: 32
27.00 64.03
29.00 160.91
39.00 98.23
41.00 686.25
42.00 122.32
43.00 721.43
53.00 47.27
54.00 90.86
55.00 1013.91
56.00 232.52
57.00 756.62
58.00 31.48
67.00 301.28
68.00 129.44
69.00 597.22
70.00 188.67
71.00 380.37
81.00 131.49
82.00 617.80
83.00 957.10
84.00 126.42
85.00 224.54
95.00 91.07
97.00 508.58
98.00 78.35
99.00 52.95
110.00 36.73
111.00 289.32
112.00 36.51
113.00 26.82
125.00 124.56
141.00 34.78
