Name: In-silico spectrum 65
Formula:
MW:
CAS#:
Comments: in-silico spectrum
Num peaks: 28
27.00 75.40
29.00 154.26
39.00 83.76
41.00 418.86
42.00 96.60
43.00 927.39
53.00 68.65
54.00 5.02
55.00 229.53
56.00 171.19
57.00 1096.30
58.00 56.53
68.00 3.31
69.00 111.87
70.00 135.88
71.00 688.69
84.00 60.67
85.00 441.46
97.00 1.63
98.00 49.01
99.00 119.70
112.00 21.50
113.00 70.30
126.00 28.19
127.00 54.58
141.00 94.63
155.00 33.47
169.00 70.76
