Name: In-silico spectrum 34
Formula:
MW:
CAS#:
Comments: in-silico spectrum
Num peaks: 26
27.00 20.06
29.00 181.74
39.00 84.35
41.00 571.76
42.00 103.73
43.00 609.32
54.00 60.29
55.00 828.94
56.00 220.24
57.00 654.00
67.00 259.65
68.00 41.39
69.00 440.77
70.00 125.25
71.00 268.20
81.00 18.05
82.00 588.55
83.00 794.14
84.00 100.91
85.00 188.47
96.00 85.19
97.00 352.17
98.00 27.17
99.00 22.85
111.00 177.18
125.00 81.17
