Name: In-silico spectrum 24
Formula:
MW:
CAS#:
Comments: in-silico spectrum
Num peaks: 32
27.00 67.36
29.00 160.20
39.00 98.36
41.00 676.04
42.00 119.65
43.00 686.57
53.00 48.84
54.00 88.86
55.00 995.37
56.00 225.52
57.00 696.98
58.00 28.27
67.00 302.79
68.00 132.95
69.00 598.20
70.00 186.76
71.00 341.40
81.00 132.54
82.00 598.87
83.00 936.54
84.00 123.99
85.00 197.79
95.00 103.39
97.00 499.61
98.00 75.61
99.00 41.78
110.00 36.78
111.00 284.94
112.00 34.60
113.00 19.68
125.00 121.90
141.00 26.89
