Name: In-silico spectrum 1
Formula:
MW:
CAS#:
Comments: in-silico spectrum
Num peaks: 35
57.00 865.53
411.00 3681.67
412.00 3875.99
413.00 4559.19
414.00 4897.49
415.00 4723.16
416.00 4477.61
417.00 4478.54
418.00 4185.45
419.00 3780.84
420.00 11495.32
421.00 14946.95
422.00 20695.63
423.00 23064.88
424.00 22748.76
425.00 22076.64
426.00 20958.41
427.00 19669.60
428.00 18229.82
431.00 925.14
432.00 1645.17
433.00 2022.95
434.00 1604.15
435.00 2125.90
436.00 1708.48
437.00 1673.64
447.00 11925.32
448.00 10396.03
449.00 21303.54
450.00 31958.09
451.00 33549.25
452.00 32872.30
453.00 31573.68
454.00 30084.14
455.00 28124.50
