Name: In-silico spectrum 67
Formula:
MW:
CAS#:
Comments: in-silico spectrum
Num peaks: 25
27.00 136.59
29.00 191.46
39.00 103.63
41.00 425.10
42.00 125.83
43.00 839.73
54.00 25.58
55.00 191.31
56.00 233.23
57.00 939.85
58.00 22.78
68.00 4.93
69.00 90.18
70.00 127.09
71.00 596.41
84.00 69.21
85.00 381.56
98.00 213.06
99.00 143.68
111.00 2.25
112.00 27.23
113.00 31.47
127.00 67.63
141.00 10.70
155.00 35.32
