Name: In-silico spectrum 1
Formula:
MW:
CAS#:
Comments: in-silico spectrum
Num peaks: 72
26.00 8.71
27.00 126.12
28.00 39.70
29.00 221.72
30.00 4.17
39.00 105.89
40.00 25.76
41.00 597.86
42.00 130.41
43.00 669.14
44.00 25.07
51.00 8.02
53.00 50.80
54.00 68.37
55.00 746.88
56.00 274.23
57.00 618.95
58.00 26.52
65.00 13.20
66.00 7.19
67.00 206.28
68.00 128.43
69.00 544.59
70.00 215.91
71.00 289.35
72.00 14.55
77.00 13.22
79.00 7.70
81.00 88.34
82.00 355.68
83.00 643.39
84.00 162.40
85.00 183.64
86.00 10.21
91.00 13.37
95.00 59.30
96.00 75.16
97.00 390.00
98.00 75.99
99.00 13.34
100.00 0.65
109.00 16.67
110.00 31.72
111.00 229.17
112.00 53.84
115.00 2.01
124.00 20.55
125.00 109.82
126.00 33.05
128.00 1.08
131.00 20.36
137.00 4.03
138.00 14.61
139.00 54.99
140.00 36.02
152.00 12.29
153.00 37.17
154.00 18.34
166.00 12.26
167.00 28.61
180.00 8.53
181.00 14.62
182.00 14.80
195.00 8.10
209.00 7.00
210.00 13.72
222.00 5.42
223.00 11.44
236.00 3.29
237.00 2.07
251.00 4.32
280.00 0.79
