Name: In-silico spectrum 37
Formula:
MW:
CAS#:
Comments: in-silico spectrum
Num peaks: 25
27.00 67.73
29.00 129.41
39.00 78.49
41.00 351.78
42.00 79.01
43.00 814.46
53.00 60.05
55.00 153.74
56.00 150.08
57.00 985.62
58.00 52.48
69.00 63.00
70.00 118.40
71.00 627.22
84.00 45.65
85.00 384.46
98.00 33.37
99.00 108.62
112.00 8.24
113.00 60.67
126.00 15.62
127.00 41.51
141.00 78.12
155.00 30.79
169.00 55.39
