Name: In-silico spectrum 1
Formula:
MW:
CAS#:
Comments: in-silico spectrum
Num peaks: 28
29.00 111.36
41.00 678.54
42.00 125.32
43.00 820.18
55.00 1001.58
56.00 366.93
57.00 1031.71
58.00 19.66
67.00 240.90
68.00 118.51
69.00 704.82
70.00 240.92
71.00 584.92
81.00 78.48
82.00 489.01
83.00 857.24
84.00 120.44
85.00 411.98
95.00 3.81
96.00 26.00
97.00 553.33
98.00 94.35
99.00 169.45
111.00 367.13
113.00 78.57
125.00 115.37
127.00 23.63
141.00 93.27
