Name: In-silico spectrum 1
Formula:
MW:
CAS#:
Comments: in-silico spectrum
Num peaks: 35
27.00 57.93
29.00 153.98
39.00 95.00
41.00 679.10
42.00 117.49
43.00 710.33
53.00 81.70
54.00 85.75
55.00 1010.61
56.00 227.72
57.00 765.56
58.00 32.73
67.00 308.91
68.00 119.35
69.00 587.77
70.00 189.14
71.00 397.62
81.00 127.72
82.00 627.89
83.00 960.28
84.00 122.16
85.00 224.20
95.00 90.83
97.00 510.44
98.00 74.78
99.00 53.75
110.00 37.52
111.00 291.70
112.00 36.11
113.00 30.35
125.00 125.63
126.00 24.44
139.00 81.94
140.00 25.24
141.00 37.80
