Name: In-silico spectrum 29
Formula:
MW:
CAS#:
Comments: in-silico spectrum
Num peaks: 42
26.00 4.32
27.00 130.04
28.00 25.90
29.00 200.82
30.00 3.38
39.00 85.21
40.00 12.16
41.00 348.91
42.00 93.80
43.00 782.88
44.00 20.85
51.00 3.73
53.00 21.22
54.00 7.73
55.00 144.73
56.00 178.41
57.00 773.65
58.00 34.54
65.00 1.47
69.00 58.53
70.00 145.59
71.00 476.58
72.00 23.33
84.00 107.95
85.00 315.76
86.00 18.68
98.00 23.98
99.00 40.55
100.00 2.41
112.00 31.57
113.00 20.21
126.00 23.82
127.00 19.73
128.00 1.12
140.00 11.43
141.00 12.92
142.00 1.53
154.00 7.64
155.00 8.46
156.00 0.06
182.00 5.00
183.00 4.51
