Name: In-silico spectrum 37
Formula:
MW:
CAS#:
Comments: in-silico spectrum
Num peaks: 43
26.00 4.01
27.00 125.25
28.00 24.59
29.00 194.39
30.00 2.97
39.00 82.18
40.00 11.78
41.00 339.05
42.00 90.88
43.00 779.79
44.00 20.86
51.00 3.47
53.00 20.43
54.00 5.76
55.00 131.55
56.00 174.03
57.00 777.66
58.00 34.81
65.00 1.21
69.00 48.22
70.00 142.03
71.00 483.44
72.00 23.74
84.00 104.24
85.00 320.62
86.00 18.95
98.00 22.76
99.00 43.94
100.00 2.73
112.00 30.32
113.00 23.16
114.00 0.20
126.00 23.12
127.00 21.89
128.00 1.40
140.00 10.55
141.00 14.25
142.00 1.69
154.00 7.40
155.00 10.11
156.00 0.46
182.00 4.47
183.00 5.23
