Name: In-silico spectrum 33
Formula:
MW:
CAS#:
Comments: in-silico spectrum
Num peaks: 42
26.00 4.31
27.00 132.68
28.00 26.39
29.00 205.64
30.00 3.63
39.00 86.88
40.00 11.73
41.00 357.97
42.00 96.61
43.00 795.65
44.00 20.70
51.00 3.19
53.00 20.79
54.00 9.41
55.00 153.49
56.00 182.34
57.00 784.53
58.00 35.05
65.00 1.00
69.00 63.73
70.00 148.47
71.00 481.55
72.00 23.51
84.00 110.70
85.00 318.73
86.00 18.80
98.00 25.07
99.00 40.17
100.00 2.44
112.00 32.77
113.00 19.56
126.00 24.54
127.00 19.37
128.00 0.75
140.00 11.93
141.00 12.66
142.00 1.51
154.00 7.92
155.00 8.10
156.00 0.07
182.00 5.69
183.00 4.64
