Name: In-silico spectrum 33
Formula:
MW:
CAS#:
Comments: in-silico spectrum
Num peaks: 35
57.00 637.29
411.00 2720.08
412.00 2847.85
413.00 3364.85
414.00 3604.46
415.00 3485.12
416.00 3323.05
417.00 3318.70
418.00 3098.41
419.00 2805.97
420.00 8414.57
421.00 10937.18
422.00 15101.51
423.00 16842.59
424.00 16603.09
425.00 16120.88
426.00 15308.93
427.00 14380.19
428.00 13316.54
431.00 677.57
432.00 1222.13
433.00 1495.39
434.00 1186.43
435.00 1579.57
436.00 1266.68
437.00 1231.16
447.00 8724.21
448.00 7610.79
449.00 15554.96
450.00 23334.89
451.00 24504.68
452.00 24016.28
453.00 23063.32
454.00 21969.41
455.00 20518.47
