Name: In-silico spectrum 37
Formula:
MW:
CAS#:
Comments: in-silico spectrum
Num peaks: 23
27.00 66.48
29.00 127.34
39.00 74.36
41.00 348.39
42.00 77.06
43.00 819.44
55.00 152.11
56.00 137.15
57.00 965.29
58.00 51.30
69.00 57.97
70.00 110.36
71.00 607.91
84.00 46.13
85.00 385.09
98.00 33.99
99.00 106.40
112.00 4.03
113.00 59.00
127.00 40.57
141.00 79.97
155.00 25.39
169.00 59.50
