Name: In-silico spectrum 67
Formula:
MW:
CAS#:
Comments: in-silico spectrum
Num peaks: 36
15.00 10.67
26.00 4.05
27.00 166.17
28.00 30.94
29.00 234.47
30.00 2.45
38.00 1.38
39.00 100.87
40.00 13.56
41.00 329.41
42.00 90.43
43.00 764.46
44.00 20.16
50.00 1.59
51.00 8.49
53.00 21.49
54.00 0.05
55.00 56.55
56.00 160.99
57.00 694.98
58.00 30.32
65.00 1.03
70.00 138.93
71.00 412.90
72.00 19.32
84.00 107.07
85.00 268.71
86.00 14.14
98.00 10.42
99.00 2.21
112.00 24.04
126.00 18.66
127.00 0.23
131.00 11.12
140.00 2.41
154.00 0.30
