Name: In-silico spectrum 1
Formula:
MW:
CAS#:
Comments: in-silico spectrum
Num peaks: 26
27.00 25.21
29.00 184.88
39.00 88.01
41.00 571.01
42.00 104.21
43.00 601.83
54.00 60.79
55.00 827.62
56.00 220.78
57.00 643.30
67.00 258.70
68.00 40.82
69.00 441.39
70.00 126.82
71.00 260.69
81.00 16.48
82.00 586.95
83.00 791.98
84.00 101.93
85.00 182.33
96.00 81.62
97.00 350.07
98.00 27.03
99.00 19.94
111.00 176.32
125.00 80.99
