Name: In-silico spectrum 29
Formula:
MW:
CAS#:
Comments: in-silico spectrum
Num peaks: 25
27.00 78.49
29.00 147.70
39.00 79.16
41.00 364.46
42.00 80.73
43.00 823.61
53.00 60.53
55.00 166.36
56.00 139.46
57.00 930.66
58.00 49.45
69.00 69.78
70.00 110.79
71.00 573.64
84.00 52.53
85.00 365.93
98.00 33.03
99.00 90.07
112.00 10.47
113.00 46.04
126.00 19.04
127.00 35.62
141.00 72.30
155.00 23.49
169.00 47.83
