Name: In-silico spectrum 72
Formula:
MW:
CAS#:
Comments: in-silico spectrum
Num peaks: 39
15.00 9.57
26.00 4.20
27.00 160.39
28.00 30.49
29.00 227.71
30.00 2.34
38.00 1.14
39.00 98.57
40.00 13.93
41.00 329.16
42.00 90.08
43.00 752.52
44.00 20.05
50.00 1.39
51.00 8.47
53.00 22.29
54.00 1.39
55.00 71.54
56.00 162.28
57.00 690.99
58.00 30.13
65.00 1.71
70.00 139.00
71.00 411.32
72.00 19.39
84.00 106.48
85.00 268.28
86.00 14.22
98.00 12.54
99.00 6.22
100.00 0.16
112.00 24.92
115.00 0.10
126.00 19.30
127.00 2.17
131.00 11.07
140.00 4.13
154.00 1.39
182.00 0.63
