Name: In-silico spectrum 33
Formula:
MW:
CAS#:
Comments: in-silico spectrum
Num peaks: 20
29.00 80.99
41.00 410.89
42.00 89.23
43.00 1010.47
55.00 304.17
56.00 332.23
57.00 1354.86
58.00 44.70
69.00 154.14
70.00 218.49
71.00 885.10
84.00 69.10
85.00 638.34
97.00 29.50
98.00 26.03
99.00 237.19
111.00 38.23
113.00 119.60
127.00 76.78
141.00 151.97
