Name: In-silico spectrum 5
Formula:
MW:
CAS#:
Comments: in-silico spectrum
Num peaks: 31
27.00 120.60
29.00 212.68
39.00 104.60
41.00 665.93
42.00 158.86
43.00 805.88
54.00 101.03
55.00 784.05
56.00 328.85
57.00 930.97
58.00 20.88
67.00 162.00
68.00 138.64
69.00 552.61
70.00 184.97
71.00 486.79
81.00 59.05
82.00 332.91
83.00 634.31
84.00 138.54
85.00 331.96
97.00 405.04
98.00 288.21
99.00 145.96
110.00 29.95
111.00 239.53
112.00 69.12
125.00 143.93
127.00 54.62
141.00 11.64
155.00 8.07
