Name: In-silico spectrum 5
Formula:
MW:
CAS#:
Comments: in-silico spectrum
Num peaks: 33
27.00 61.12
29.00 179.10
39.00 105.33
41.00 666.17
42.00 137.39
43.00 768.87
53.00 51.76
54.00 74.83
55.00 798.66
56.00 344.03
57.00 841.30
58.00 40.77
67.00 166.96
68.00 195.07
69.00 686.82
70.00 245.51
71.00 422.08
81.00 130.59
82.00 173.32
83.00 582.15
84.00 137.35
85.00 286.78
95.00 70.37
97.00 469.82
98.00 115.30
99.00 84.60
110.00 55.87
111.00 279.30
112.00 68.38
113.00 40.10
125.00 162.10
127.00 9.17
141.00 68.04
