Name: In-silico spectrum 5
Formula:
MW:
CAS#:
Comments: in-silico spectrum
Num peaks: 35
57.00 1064.93
411.00 4512.98
412.00 4765.67
413.00 5589.55
414.00 6017.47
415.00 5792.10
416.00 5471.85
417.00 5475.98
418.00 5122.63
419.00 4621.35
420.00 14173.02
421.00 18431.51
422.00 25566.49
423.00 28478.09
424.00 28095.19
425.00 27260.58
426.00 25872.62
427.00 24268.72
428.00 22503.82
431.00 1141.52
432.00 2008.01
433.00 2478.00
434.00 1964.14
435.00 2595.62
436.00 2087.09
437.00 2058.36
447.00 14708.62
448.00 12815.60
449.00 26305.39
450.00 39459.51
451.00 41415.52
452.00 40571.29
453.00 38974.70
454.00 37143.36
455.00 34745.78
