Name: In-silico spectrum 5
Formula:
MW:
CAS#:
Comments: in-silico spectrum
Num peaks: 58
26.00 4.14
27.00 101.16
28.00 26.87
29.00 175.75
30.00 0.20
39.00 79.65
40.00 15.58
41.00 418.58
42.00 102.63
43.00 696.72
44.00 20.31
51.00 2.75
53.00 29.05
54.00 33.69
55.00 384.43
56.00 207.21
57.00 713.10
58.00 31.98
65.00 5.38
67.00 72.12
68.00 50.07
69.00 254.83
70.00 161.66
71.00 414.16
72.00 20.84
81.00 2.66
82.00 113.85
83.00 251.09
84.00 118.44
85.00 274.09
86.00 15.98
96.00 15.33
97.00 153.37
98.00 47.88
99.00 47.87
100.00 4.46
111.00 88.89
112.00 41.44
113.00 24.73
124.00 1.52
125.00 39.95
126.00 28.78
127.00 19.37
128.00 1.31
131.00 0.01
139.00 20.31
140.00 24.80
141.00 16.06
142.00 1.39
153.00 8.50
154.00 14.98
155.00 8.41
166.00 3.70
167.00 11.50
181.00 1.95
182.00 12.53
183.00 6.14
210.00 9.97
