Name: In-silico spectrum 5
Formula:
MW:
CAS#:
Comments: in-silico spectrum
Num peaks: 36
27.00 63.80
29.00 184.21
39.00 104.15
41.00 666.46
42.00 138.15
43.00 768.81
53.00 97.14
54.00 71.38
55.00 802.50
56.00 352.58
57.00 851.72
58.00 41.62
67.00 159.80
68.00 195.20
69.00 688.70
70.00 255.41
71.00 434.16
81.00 121.58
82.00 169.92
83.00 586.77
84.00 147.88
85.00 295.65
95.00 55.23
97.00 483.70
98.00 118.95
99.00 88.80
110.00 55.16
111.00 283.58
112.00 73.26
113.00 41.62
125.00 168.91
126.00 53.72
127.00 16.31
139.00 67.65
140.00 66.27
141.00 81.19
