Name: In-silico spectrum 5
Formula:
MW:
CAS#:
Comments: in-silico spectrum
Num peaks: 25
27.00 56.85
29.00 199.13
39.00 52.77
41.00 483.17
42.00 109.27
43.00 630.92
54.00 3.67
55.00 503.76
56.00 304.31
57.00 736.69
67.00 37.49
68.00 85.52
69.00 411.59
70.00 164.26
71.00 355.54
82.00 2.20
83.00 330.40
84.00 113.39
85.00 246.18
96.00 27.37
97.00 275.61
98.00 67.97
99.00 64.54
111.00 140.60
125.00 103.05
