Name: Undecane, 5-cyclohexyl-
Formula:
MW:
CAS#:
Comments: in-silico spectrum 1
Num peaks: 28
29.00 111.36
41.00 678.54
42.00 125.32
43.00 820.18
55.00 1001.58
56.00 366.93
57.00 1031.71
58.00 19.66
67.00 240.90
68.00 118.51
69.00 704.82
70.00 240.92
71.00 584.92
81.00 78.48
82.00 489.01
83.00 857.24
84.00 120.44
85.00 411.98
95.00 3.81
96.00 26.00
97.00 553.33
98.00 94.35
99.00 169.45
111.00 367.13
113.00 78.57
125.00 115.37
127.00 23.63
141.00 93.27
Name: Cyclohexane, 1,1'-tetradecylidenebis-
Formula:
MW:
CAS#:
Comments: in-silico spectrum 2
Num peaks: 28
29.00 131.12
41.00 777.28
42.00 137.45
43.00 840.19
55.00 1201.61
56.00 395.12
57.00 1029.00
58.00 13.48
67.00 339.48
68.00 168.25
69.00 847.60
70.00 262.17
71.00 552.48
81.00 152.61
82.00 645.73
83.00 1077.82
84.00 136.60
85.00 385.77
95.00 70.40
96.00 78.00
97.00 682.43
98.00 113.34
99.00 158.09
111.00 447.82
113.00 68.59
125.00 159.06
127.00 9.64
141.00 80.77
Name: Decane, 2,3,7-trimethyl-
Formula:
MW:
CAS#:
Comments: in-silico spectrum 3
Num peaks: 20
29.00 81.13
41.00 394.53
42.00 85.57
43.00 986.76
55.00 277.78
56.00 321.92
57.00 1317.95
58.00 43.61
69.00 135.08
70.00 212.06
71.00 861.94
84.00 66.51
85.00 621.50
97.00 14.63
98.00 22.87
99.00 228.92
111.00 28.43
113.00 114.54
127.00 74.16
141.00 146.90
Name: Cyclopropane, 1-(1,2-dimethylpropyl)-1-methyl-2-nonyl-
Formula:
MW:
CAS#:
Comments: in-silico spectrum 4
Num peaks: 25
29.00 90.57
41.00 572.56
42.00 111.46
43.00 825.12
55.00 777.36
56.00 341.50
57.00 1075.34
58.00 26.69
67.00 121.33
68.00 46.49
69.00 534.43
70.00 222.52
71.00 645.43
82.00 301.38
83.00 595.54
84.00 100.27
85.00 459.61
97.00 398.04
98.00 73.44
99.00 187.95
111.00 269.60
113.00 92.16
125.00 55.89
127.00 41.03
141.00 111.72
Name: Z-14-Nonacosane
Formula:
MW:
CAS#:
Comments: in-silico spectrum 5
Num peaks: 22
29.00 70.30
41.00 469.35
42.00 99.67
43.00 965.58
55.00 487.44
56.00 342.81
57.00 1317.06
58.00 42.46
69.00 303.55
70.00 223.86
71.00 849.82
82.00 11.21
83.00 211.09
84.00 78.01
85.00 611.90
97.00 172.91
98.00 46.66
99.00 243.10
111.00 128.72
113.00 127.78
127.00 77.87
141.00 152.71
Name: 11-Methylpentacosane
Formula:
MW:
CAS#:
Comments: in-silico spectrum 6
Num peaks: 21
29.00 77.29
41.00 441.46
42.00 95.76
43.00 1043.35
55.00 364.98
56.00 351.41
57.00 1415.73
58.00 46.50
69.00 200.47
70.00 229.37
71.00 924.77
83.00 33.96
84.00 73.57
85.00 666.50
97.00 68.23
98.00 33.24
99.00 253.74
111.00 63.70
113.00 130.22
127.00 82.39
141.00 162.13
Name: Cyclopentane, (4-octyldodecyl)-
Formula:
MW:
CAS#:
Comments: in-silico spectrum 7
Num peaks: 25
29.00 96.73
41.00 639.78
42.00 124.10
43.00 900.34
55.00 885.85
56.00 378.38
57.00 1178.39
58.00 28.47
67.00 150.41
68.00 63.49
69.00 612.06
70.00 245.31
71.00 704.55
82.00 358.71
83.00 694.00
84.00 111.09
85.00 500.91
97.00 463.53
98.00 84.42
99.00 206.83
111.00 311.50
113.00 101.99
125.00 70.56
127.00 44.12
141.00 121.35
Name: 3-Ethyl-3-methylheptadecane
Formula:
MW:
CAS#:
Comments: in-silico spectrum 8
Num peaks: 20
29.00 76.47
41.00 411.59
42.00 89.53
43.00 1010.14
55.00 311.68
56.00 335.21
57.00 1365.94
58.00 45.18
69.00 160.42
70.00 218.97
71.00 894.22
84.00 68.50
85.00 644.68
97.00 34.78
98.00 27.32
99.00 241.88
111.00 41.38
113.00 122.91
127.00 78.86
141.00 154.64
Name: 5-Ethyl-5-methylheptadecane
Formula:
MW:
CAS#:
Comments: in-silico spectrum 9
Num peaks: 20
29.00 76.48
41.00 414.59
42.00 90.07
43.00 1009.37
55.00 319.46
56.00 335.72
57.00 1364.88
58.00 45.07
69.00 166.71
70.00 219.39
71.00 892.94
84.00 69.10
85.00 643.77
97.00 40.51
98.00 28.15
99.00 242.04
111.00 45.16
113.00 123.17
127.00 78.78
141.00 154.77
Name: Tetracosane, 11-decyl-
Formula:
MW:
CAS#:
Comments: in-silico spectrum 10
Num peaks: 21
29.00 75.05
41.00 462.67
42.00 100.02
43.00 1051.41
55.00 415.10
56.00 360.33
57.00 1434.03
58.00 47.05
69.00 239.70
70.00 234.59
71.00 934.98
83.00 91.42
84.00 77.12
85.00 673.78
97.00 103.25
98.00 38.90
99.00 260.67
111.00 86.12
113.00 135.28
127.00 84.43
141.00 165.94
Name: Nonacosane, 2-methyl-
Formula:
MW:
CAS#:
Comments: in-silico spectrum 11
Num peaks: 21
29.00 77.10
41.00 441.50
42.00 95.86
43.00 1051.31
55.00 360.62
56.00 353.84
57.00 1428.56
58.00 46.95
69.00 196.41
70.00 230.56
71.00 934.01
83.00 25.43
84.00 73.26
85.00 673.12
97.00 63.73
98.00 32.83
99.00 256.18
111.00 60.88
113.00 131.42
127.00 83.36
141.00 163.65
Name: Heptane, 2,4-dimethyl-
Formula:
MW:
CAS#:
Comments: in-silico spectrum 12
Num peaks: 19
27.00 7.12
29.00 79.67
41.00 344.17
42.00 74.54
43.00 924.23
55.00 190.13
56.00 292.17
57.00 1224.74
58.00 40.64
69.00 69.30
70.00 193.02
71.00 803.74
84.00 57.18
85.00 580.71
98.00 13.65
99.00 207.60
113.00 101.94
127.00 67.50
141.00 132.79
Name: 3,3-Diethylheptadecane
Formula:
MW:
CAS#:
Comments: in-silico spectrum 13
Num peaks: 20
29.00 76.41
41.00 416.83
42.00 90.56
43.00 1013.80
55.00 322.52
56.00 337.52
57.00 1371.76
58.00 45.30
69.00 168.82
70.00 220.47
71.00 897.53
84.00 69.41
85.00 647.03
97.00 41.94
98.00 28.52
99.00 243.52
111.00 46.16
113.00 124.04
127.00 79.30
141.00 155.69
Name: Octane, 3,5-dimethyl-
Formula:
MW:
CAS#:
Comments: in-silico spectrum 14
Num peaks: 20
27.00 3.80
29.00 80.92
41.00 364.23
42.00 79.04
43.00 958.99
55.00 218.14
56.00 306.47
57.00 1275.71
58.00 42.30
69.00 89.05
70.00 202.03
71.00 836.67
84.00 60.63
85.00 603.86
98.00 16.51
99.00 218.05
111.00 2.98
113.00 107.71
127.00 70.96
141.00 139.73
Name: Decane, 2,4,6-trimethyl-
Formula:
MW:
CAS#:
Comments: in-silico spectrum 15
Num peaks: 20
29.00 81.09
41.00 390.95
42.00 84.83
43.00 982.93
55.00 270.81
56.00 319.99
57.00 1312.56
58.00 43.46
69.00 129.79
70.00 210.64
71.00 858.30
84.00 65.87
85.00 619.24
97.00 10.41
98.00 22.22
99.00 227.65
111.00 25.57
113.00 113.73
127.00 73.68
141.00 146.02
Name: Eicosane, 2-cyclohexyl-
Formula:
MW:
CAS#:
Comments: in-silico spectrum 16
Num peaks: 26
29.00 102.63
41.00 660.08
42.00 125.06
43.00 853.07
55.00 951.56
56.00 373.21
57.00 1099.06
58.00 23.89
67.00 201.36
68.00 95.60
69.00 664.80
70.00 242.70
71.00 640.93
81.00 42.48
82.00 432.40
83.00 787.14
84.00 115.89
85.00 452.96
97.00 514.91
98.00 90.24
99.00 187.71
111.00 343.54
113.00 90.20
125.00 96.56
127.00 33.54
141.00 107.12
Name: Dodecane, 6-cyclohexyl-
Formula:
MW:
CAS#:
Comments: in-silico spectrum 17
Num peaks: 27
29.00 109.86
41.00 675.39
42.00 125.28
43.00 824.97
55.00 993.24
56.00 367.90
57.00 1042.12
58.00 20.38
67.00 234.62
68.00 115.01
69.00 698.43
70.00 241.13
71.00 593.73
81.00 72.82
82.00 479.84
83.00 845.97
84.00 119.79
85.00 418.34
96.00 21.86
97.00 547.31
98.00 93.62
99.00 172.27
111.00 363.41
113.00 80.37
125.00 112.53
127.00 25.27
141.00 95.39
Name: Dodecane
Formula:
MW:
CAS#:
Comments: in-silico spectrum 18
Num peaks: 20
29.00 78.22
41.00 390.39
42.00 85.17
43.00 982.33
55.00 274.14
56.00 321.25
57.00 1319.13
58.00 43.67
69.00 132.57
70.00 210.67
71.00 863.18
84.00 65.21
85.00 622.67
97.00 13.31
98.00 23.34
99.00 230.26
111.00 26.77
113.00 115.65
127.00 74.87
141.00 147.21
Name: Cyclopentane, (2-decyldodecyl)-
Formula:
MW:
CAS#:
Comments: in-silico spectrum 19
Num peaks: 25
29.00 95.02
41.00 634.37
42.00 123.36
43.00 902.95
55.00 874.01
56.00 377.87
57.00 1185.86
58.00 29.05
67.00 143.13
68.00 59.02
69.00 602.90
70.00 244.76
71.00 711.47
82.00 347.87
83.00 679.49
84.00 109.90
85.00 506.26
97.00 455.01
98.00 83.44
99.00 209.10
111.00 305.96
113.00 103.59
125.00 66.92
127.00 45.68
141.00 123.06
Name: Octadecane, 6-methyl-
Formula:
MW:
CAS#:
Comments: in-silico spectrum 20
Num peaks: 21
29.00 78.98
41.00 429.66
42.00 93.16
43.00 1030.18
55.00 341.36
56.00 343.74
57.00 1390.84
58.00 45.73
69.00 182.53
70.00 225.09
71.00 908.35
83.00 10.76
84.00 71.84
85.00 654.80
97.00 53.22
98.00 30.39
99.00 246.91
111.00 53.92
113.00 125.85
127.00 80.01
141.00 157.99
Name: 5-Methyltricosane
Formula:
MW:
CAS#:
Comments: in-silico spectrum 21
Num peaks: 21
29.00 77.71
41.00 439.27
42.00 95.23
43.00 1038.20
55.00 362.10
56.00 349.20
57.00 1406.79
58.00 46.19
69.00 198.55
70.00 228.19
71.00 918.59
83.00 32.60
84.00 73.34
85.00 662.06
97.00 67.00
98.00 32.85
99.00 251.66
111.00 62.88
113.00 129.01
127.00 81.60
141.00 160.86
Name: Dodecane, 2,6,11-trimethyl-
Formula:
MW:
CAS#:
Comments: in-silico spectrum 22
Num peaks: 20
29.00 79.39
41.00 395.94
42.00 86.01
43.00 986.34
55.00 283.72
56.00 323.37
57.00 1322.25
58.00 43.79
69.00 140.06
70.00 212.37
71.00 864.78
84.00 66.50
85.00 623.63
97.00 19.40
98.00 23.83
99.00 230.86
111.00 31.32
113.00 115.99
127.00 74.88
141.00 147.97
Name: 13,17,21-Trimethylpentatriacontane
Formula:
MW:
CAS#:
Comments: in-silico spectrum 23
Num peaks: 21
29.00 74.91
41.00 453.34
42.00 98.42
43.00 1060.93
55.00 386.81
56.00 360.76
57.00 1448.57
58.00 47.67
69.00 216.43
70.00 234.37
71.00 947.25
83.00 52.69
84.00 75.11
85.00 682.69
97.00 81.11
98.00 35.91
99.00 262.42
111.00 72.18
113.00 135.63
127.00 85.53
141.00 167.40
Name: Tridecane, 3-cyclohexyl-
Formula:
MW:
CAS#:
Comments: in-silico spectrum 24
Num peaks: 28
29.00 110.68
41.00 681.54
42.00 126.21
43.00 829.46
55.00 1003.99
56.00 370.39
57.00 1047.07
58.00 20.34
67.00 238.71
68.00 117.29
69.00 706.25
70.00 242.83
71.00 595.81
81.00 75.33
82.00 486.91
83.00 856.72
84.00 120.84
85.00 419.84
95.00 0.08
96.00 23.52
97.00 553.84
98.00 94.67
99.00 172.96
111.00 367.59
113.00 80.72
125.00 114.45
127.00 25.08
141.00 95.58
Name: 13-Methylheptacosane
Formula:
MW:
CAS#:
Comments: in-silico spectrum 25
Num peaks: 21
29.00 76.87
41.00 443.84
42.00 96.30
43.00 1046.96
55.00 369.28
56.00 353.27
57.00 1422.37
58.00 46.73
69.00 203.62
70.00 230.38
71.00 929.27
83.00 37.66
84.00 73.89
85.00 669.73
97.00 70.76
98.00 33.79
99.00 255.45
111.00 65.34
113.00 131.27
127.00 83.00
141.00 163.15
Name: 3-Ethyl-3-methylnonadecane
Formula:
MW:
CAS#:
Comments: in-silico spectrum 26
Num peaks: 20
29.00 76.00
41.00 415.85
42.00 90.42
43.00 1014.41
55.00 320.30
56.00 337.78
57.00 1373.84
58.00 45.41
69.00 167.03
70.00 220.44
71.00 899.29
84.00 69.12
85.00 648.28
97.00 40.32
98.00 28.34
99.00 244.04
111.00 45.04
113.00 124.30
127.00 79.59
141.00 155.97
Name: Decane, 2,6,6-trimethyl-
Formula:
MW:
CAS#:
Comments: in-silico spectrum 27
Num peaks: 20
27.00 0.78
29.00 79.69
41.00 372.60
42.00 80.94
43.00 972.93
55.00 232.00
56.00 313.43
57.00 1300.52
58.00 43.18
69.00 99.33
70.00 205.74
71.00 853.54
84.00 61.78
85.00 615.64
98.00 18.09
99.00 224.15
111.00 7.88
113.00 111.41
127.00 73.18
141.00 143.53
Name: 2-Methyltetracosane
Formula:
MW:
CAS#:
Comments: in-silico spectrum 28
Num peaks: 21
29.00 78.15
41.00 434.44
42.00 94.30
43.00 1042.63
55.00 346.95
56.00 349.03
57.00 1412.39
58.00 46.48
69.00 186.12
70.00 227.88
71.00 923.25
83.00 12.48
84.00 72.25
85.00 665.44
97.00 55.26
98.00 31.19
99.00 251.85
111.00 55.33
113.00 128.68
127.00 81.85
141.00 161.01
Name: Undecane, 5,7-dimethyl-
Formula:
MW:
CAS#:
Comments: in-silico spectrum 29
Num peaks: 20
29.00 80.99
41.00 396.35
42.00 86.15
43.00 999.83
55.00 274.16
56.00 325.78
57.00 1338.28
58.00 44.34
69.00 130.99
70.00 214.07
71.00 875.96
84.00 66.47
85.00 631.85
97.00 9.79
98.00 22.77
99.00 232.72
111.00 25.31
113.00 116.49
127.00 75.58
141.00 149.11
Name: Octane, 2,6,6-trimethyl-
Formula:
MW:
CAS#:
Comments: in-silico spectrum 30
Num peaks: 19
27.00 4.25
29.00 78.64
41.00 353.22
42.00 76.67
43.00 940.93
55.00 204.14
56.00 300.11
57.00 1253.47
58.00 41.65
69.00 79.48
70.00 197.52
71.00 823.47
84.00 58.40
85.00 594.24
98.00 15.06
99.00 214.26
113.00 105.86
127.00 69.98
141.00 137.13
Name: 3,3-Diethylpentadecane
Formula:
MW:
CAS#:
Comments: in-silico spectrum 31
Num peaks: 20
29.00 76.90
41.00 412.42
42.00 89.64
43.00 1009.64
55.00 313.42
56.00 334.92
57.00 1363.94
58.00 45.08
69.00 161.81
70.00 218.99
71.00 892.55
84.00 68.76
85.00 643.49
97.00 36.03
98.00 27.44
99.00 241.34
111.00 42.26
113.00 122.62
127.00 78.58
141.00 154.35
Name: Hexacontane
Formula:
MW:
CAS#:
Comments: in-silico spectrum 32
Num peaks: 21
29.00 67.40
41.00 462.13
42.00 100.55
43.00 1060.27
55.00 418.78
56.00 367.78
57.00 1467.47
58.00 48.15
69.00 242.25
70.00 236.70
71.00 960.79
83.00 90.83
84.00 75.45
85.00 692.74
97.00 105.14
98.00 40.48
99.00 271.35
111.00 86.68
113.00 142.12
127.00 89.11
141.00 172.17
Name: Undecane, 3-ethyl-
Formula:
MW:
CAS#:
Comments: in-silico spectrum 33
Num peaks: 20
29.00 80.99
41.00 410.89
42.00 89.23
43.00 1010.47
55.00 304.17
56.00 332.23
57.00 1354.86
58.00 44.70
69.00 154.14
70.00 218.49
71.00 885.10
84.00 69.10
85.00 638.34
97.00 29.50
98.00 26.03
99.00 237.19
111.00 38.23
113.00 119.60
127.00 76.78
141.00 151.97
Name: Tridecane, 6-cyclohexyl-
Formula:
MW:
CAS#:
Comments: in-silico spectrum 34
Num peaks: 27
29.00 111.03
41.00 684.40
42.00 126.82
43.00 834.21
55.00 1007.72
56.00 372.38
57.00 1053.78
58.00 20.53
67.00 238.95
68.00 117.36
69.00 708.77
70.00 244.06
71.00 600.04
81.00 74.87
82.00 487.96
83.00 859.28
84.00 121.31
85.00 422.81
96.00 23.02
97.00 555.73
98.00 95.03
99.00 174.20
111.00 368.86
113.00 81.37
125.00 114.60
127.00 25.44
141.00 96.35
Name: Nonadecane, 3-methyl-
Formula:
MW:
CAS#:
Comments: in-silico spectrum 35
Num peaks: 21
29.00 78.76
41.00 428.86
42.00 93.04
43.00 1033.25
55.00 337.90
56.00 344.66
57.00 1396.17
58.00 45.97
69.00 179.51
70.00 225.49
71.00 912.36
83.00 5.23
84.00 71.56
85.00 657.64
97.00 50.16
98.00 30.08
99.00 247.87
111.00 51.93
113.00 126.29
127.00 80.48
141.00 158.56
Name: Nonane, 3,7-dimethyl-
Formula:
MW:
CAS#:
Comments: in-silico spectrum 36
Num peaks: 20
27.00 0.11
29.00 81.38
41.00 382.04
42.00 82.99
43.00 988.12
55.00 244.93
56.00 318.81
57.00 1319.04
58.00 43.73
69.00 108.33
70.00 209.72
71.00 864.85
84.00 63.64
85.00 623.71
98.00 19.45
99.00 227.40
111.00 12.63
113.00 113.09
127.00 74.03
141.00 145.67
Name: Undecane, 2,7-dimethyl-
Formula:
MW:
CAS#:
Comments: in-silico spectrum 37
Num peaks: 19
29.00 82.21
41.00 393.89
42.00 85.59
43.00 1009.37
55.00 260.31
56.00 327.04
57.00 1349.99
58.00 44.75
69.00 119.01
70.00 214.87
71.00 884.51
84.00 65.67
85.00 637.93
98.00 21.17
99.00 233.75
111.00 17.69
113.00 116.64
127.00 76.01
141.00 149.70
Name: Octane, 2,3,3-trimethyl-
Formula:
MW:
CAS#:
Comments: in-silico spectrum 38
Num peaks: 20
27.00 2.04
29.00 78.53
41.00 360.46
42.00 78.14
43.00 941.66
55.00 222.13
56.00 302.22
57.00 1254.47
58.00 41.62
69.00 94.00
70.00 198.99
71.00 823.01
84.00 60.04
85.00 593.71
98.00 16.94
99.00 215.30
111.00 6.38
113.00 106.75
127.00 70.17
141.00 138.03
Name: Decane, 5,6-dimethyl-
Formula:
MW:
CAS#:
Comments: in-silico spectrum 39
Num peaks: 20
29.00 80.96
41.00 390.91
42.00 84.90
43.00 987.81
55.00 268.22
56.00 321.25
57.00 1319.88
58.00 43.71
69.00 127.30
70.00 211.48
71.00 863.88
84.00 65.65
85.00 622.96
97.00 7.46
98.00 22.02
99.00 228.91
111.00 23.70
113.00 114.36
127.00 74.28
141.00 146.72
Name: Cycloundecane, 1,1,2-trimethyl-
Formula:
MW:
CAS#:
Comments: in-silico spectrum 40
Num peaks: 25
29.00 85.07
41.00 521.09
42.00 101.74
43.00 758.64
55.00 702.01
56.00 312.85
57.00 986.58
58.00 24.67
67.00 105.27
68.00 38.26
69.00 481.88
70.00 204.66
71.00 592.72
82.00 266.87
83.00 532.92
84.00 91.98
85.00 421.85
97.00 356.52
98.00 66.24
99.00 171.52
111.00 242.33
113.00 83.23
125.00 48.19
127.00 37.64
141.00 101.94
Name: Heptadecane, 2-methyl-
Formula:
MW:
CAS#:
Comments: in-silico spectrum 41
Num peaks: 20
29.00 79.99
41.00 420.05
42.00 91.31
43.00 1030.91
55.00 315.82
56.00 340.95
57.00 1389.23
58.00 45.87
69.00 162.00
70.00 223.30
71.00 908.52
84.00 70.09
85.00 655.05
97.00 34.64
98.00 27.57
99.00 244.99
111.00 41.76
113.00 124.09
127.00 79.57
141.00 156.78
Name: Octatriacontane, 3,5-dimethyl-
Formula:
MW:
CAS#:
Comments: in-silico spectrum 42
Num peaks: 21
29.00 74.17
41.00 454.10
42.00 98.60
43.00 1060.07
55.00 390.30
56.00 361.35
57.00 1449.48
58.00 47.67
69.00 219.31
70.00 234.55
71.00 947.88
83.00 57.29
84.00 75.19
85.00 683.13
97.00 83.84
98.00 36.44
99.00 263.14
111.00 73.84
113.00 136.20
127.00 85.85
141.00 167.77
Name: Cyclopropane, 1-methyl-1-(1-methylethyl)-2-nonyl-
Formula:
MW:
CAS#:
Comments: in-silico spectrum 43
Num peaks: 25
29.00 86.80
41.00 548.42
42.00 107.87
43.00 830.78
55.00 722.86
56.00 335.85
57.00 1090.14
58.00 28.37
67.00 91.59
68.00 27.48
69.00 492.62
70.00 219.03
71.00 662.39
82.00 255.62
83.00 531.16
84.00 95.63
85.00 472.56
97.00 359.07
98.00 68.31
99.00 192.27
111.00 245.02
113.00 95.10
125.00 40.49
127.00 45.49
141.00 115.45
Name: Hexadecane, 8-hexyl-8-pentyl-
Formula:
MW:
CAS#:
Comments: in-silico spectrum 44
Num peaks: 21
29.00 75.15
41.00 433.79
42.00 94.23
43.00 1033.77
55.00 354.13
56.00 348.00
57.00 1406.19
58.00 46.26
69.00 192.57
70.00 226.56
71.00 919.70
83.00 23.60
84.00 71.96
85.00 662.94
97.00 61.54
98.00 32.21
99.00 252.34
111.00 59.06
113.00 129.58
127.00 82.23
141.00 161.13
Name: 4,4-Dipropylheptane
Formula:
MW:
CAS#:
Comments: in-silico spectrum 45
Num peaks: 19
29.00 74.43
41.00 356.65
42.00 77.52
43.00 915.35
55.00 234.83
56.00 296.59
57.00 1224.72
58.00 40.67
69.00 106.81
70.00 194.70
71.00 802.68
84.00 59.67
85.00 579.38
98.00 19.01
99.00 212.13
111.00 15.25
113.00 105.85
127.00 69.02
141.00 135.72
Name: 2-methyloctacosane
Formula:
MW:
CAS#:
Comments: in-silico spectrum 46
Num peaks: 21
29.00 77.32
41.00 440.51
42.00 95.63
43.00 1049.32
55.00 359.06
56.00 352.90
57.00 1424.92
58.00 46.83
69.00 195.32
70.00 230.06
71.00 931.49
83.00 24.37
84.00 73.14
85.00 671.32
97.00 62.94
98.00 32.62
99.00 255.28
111.00 60.36
113.00 130.88
127.00 83.02
141.00 163.11
Name: Cyclohexane, 1,1-dimethyl-2-propyl-
Formula:
MW:
CAS#:
Comments: in-silico spectrum 47
Num peaks: 27
29.00 92.89
41.00 546.04
42.00 102.78
43.00 691.00
55.00 785.20
56.00 302.40
57.00 870.68
58.00 18.18
67.00 172.83
68.00 81.60
69.00 549.73
70.00 198.92
71.00 501.15
81.00 43.93
82.00 363.06
83.00 653.36
84.00 97.79
85.00 353.21
96.00 5.70
97.00 424.36
98.00 72.99
99.00 144.15
111.00 284.33
113.00 66.64
125.00 82.59
127.00 22.42
141.00 81.81
Name: Tricosane
Formula:
MW:
CAS#:
Comments: in-silico spectrum 48
Num peaks: 21
29.00 74.39
41.00 429.00
42.00 93.19
43.00 1005.84
55.00 361.29
56.00 339.98
57.00 1366.48
58.00 44.80
69.00 200.75
70.00 221.76
71.00 891.82
83.00 44.23
84.00 71.57
85.00 642.78
97.00 72.79
98.00 33.33
99.00 245.43
111.00 65.71
113.00 126.21
127.00 79.64
141.00 156.55
Name: Dodecane, 2-methyl-6-propyl-
Formula:
MW:
CAS#:
Comments: in-silico spectrum 49
Num peaks: 20
29.00 81.68
41.00 416.18
42.00 90.44
43.00 1031.02
55.00 303.76
56.00 338.86
57.00 1384.71
58.00 45.79
69.00 152.09
70.00 222.43
71.00 905.69
84.00 69.66
85.00 653.04
97.00 25.55
98.00 25.92
99.00 242.69
111.00 36.02
113.00 122.37
127.00 78.75
141.00 155.47
Name: Triacontane, 11,20-didecyl-
Formula:
MW:
CAS#:
Comments: in-silico spectrum 50
Num peaks: 21
29.00 72.85
41.00 471.88
42.00 102.38
43.00 1084.61
55.00 420.83
56.00 373.09
57.00 1490.29
58.00 49.01
69.00 241.57
70.00 241.35
71.00 974.62
83.00 84.27
84.00 77.73
85.00 702.47
97.00 101.62
98.00 39.94
99.00 273.13
111.00 85.42
113.00 142.28
127.00 89.21
141.00 173.76
Name: Tetracosane, 12-decyl-12-nonyl-
Formula:
MW:
CAS#:
Comments: in-silico spectrum 51
Num peaks: 21
29.00 72.32
41.00 451.42
42.00 98.20
43.00 1061.44
55.00 384.69
56.00 361.76
57.00 1455.78
58.00 47.93
69.00 214.74
70.00 234.14
71.00 953.26
83.00 49.06
84.00 74.29
85.00 687.10
97.00 79.02
98.00 36.00
99.00 264.87
111.00 70.50
113.00 137.31
127.00 86.71
141.00 168.76
Name: Hexadecane, 4-methyl-
Formula:
MW:
CAS#:
Comments: in-silico spectrum 52
Num peaks: 20
29.00 79.96
41.00 423.07
42.00 91.81
43.00 1027.40
55.00 325.37
56.00 340.64
57.00 1383.73
58.00 45.59
69.00 169.84
70.00 223.38
71.00 904.15
84.00 70.82
85.00 651.88
97.00 42.05
98.00 28.53
99.00 244.31
111.00 46.60
113.00 123.97
127.00 79.20
141.00 156.41
Name: Heptane, 2,2,3,3,5,6,6-heptamethyl-
Formula:
MW:
CAS#:
Comments: in-silico spectrum 53
Num peaks: 19
27.00 4.17
29.00 68.60
41.00 308.61
42.00 66.92
43.00 830.02
55.00 173.38
56.00 264.58
57.00 1107.04
58.00 36.96
69.00 64.67
70.00 173.81
71.00 728.41
84.00 50.97
85.00 525.98
98.00 12.54
99.00 189.39
113.00 93.52
127.00 62.16
141.00 121.00
Name: Undecane
Formula:
MW:
CAS#:
Comments: in-silico spectrum 54
Num peaks: 20
29.00 79.23
41.00 389.94
42.00 85.04
43.00 987.73
55.00 268.34
56.00 321.86
57.00 1324.61
58.00 43.85
69.00 127.37
70.00 211.18
71.00 867.12
84.00 65.08
85.00 625.51
97.00 7.98
98.00 22.63
99.00 230.58
111.00 23.52
113.00 115.57
127.00 74.97
141.00 147.44
Name: 3-Methylheptacosane
Formula:
MW:
CAS#:
Comments: in-silico spectrum 55
Num peaks: 21
29.00 76.78
41.00 441.81
42.00 95.86
43.00 1045.10
55.00 365.57
56.00 352.45
57.00 1419.86
58.00 46.64
69.00 200.81
70.00 229.83
71.00 927.82
83.00 33.82
84.00 73.50
85.00 668.61
97.00 68.36
98.00 33.38
99.00 254.81
111.00 63.77
113.00 130.86
127.00 82.86
141.00 162.76
Name: Eicosane, 3-methyl-
Formula:
MW:
CAS#:
Comments: in-silico spectrum 56
Num peaks: 21
29.00 78.48
41.00 431.09
42.00 93.51
43.00 1034.57
55.00 343.04
56.00 345.78
57.00 1399.02
58.00 46.03
69.00 183.54
70.00 226.13
71.00 914.12
83.00 10.90
84.00 71.91
85.00 658.87
97.00 53.68
98.00 30.67
99.00 248.81
111.00 54.23
113.00 126.94
127.00 80.78
141.00 159.14
Name: 5-Methyldocosane
Formula:
MW:
CAS#:
Comments: in-silico spectrum 57
Num peaks: 21
29.00 77.93
41.00 437.55
42.00 94.85
43.00 1035.95
55.00 358.88
56.00 348.01
57.00 1402.74
58.00 46.05
69.00 196.16
70.00 227.52
71.00 915.90
83.00 29.62
84.00 73.08
85.00 660.13
97.00 65.05
98.00 32.46
99.00 250.61
111.00 61.60
113.00 128.35
127.00 81.23
141.00 160.23
Name: Hexadecane
Formula:
MW:
CAS#:
Comments: in-silico spectrum 58
Num peaks: 20
29.00 76.25
41.00 409.45
42.00 89.08
43.00 991.85
55.00 318.65
56.00 330.03
57.00 1339.64
58.00 44.08
69.00 167.67
70.00 215.93
71.00 875.10
84.00 68.36
85.00 631.02
97.00 44.12
98.00 28.43
99.00 237.23
111.00 46.95
113.00 120.63
127.00 77.02
141.00 151.58
Name: Hexacosane, 13-dodecyl-
Formula:
MW:
CAS#:
Comments: in-silico spectrum 59
Num peaks: 21
29.00 74.42
41.00 463.69
42.00 100.38
43.00 1059.43
55.00 413.78
56.00 363.21
57.00 1447.91
58.00 47.55
69.00 238.06
70.00 236.01
71.00 944.94
83.00 86.42
84.00 77.05
85.00 681.00
97.00 100.95
98.00 38.92
99.00 263.66
111.00 84.71
113.00 136.90
127.00 85.63
141.00 167.80
Name: 13,17,21-Trimethyltritriacontane
Formula:
MW:
CAS#:
Comments: in-silico spectrum 60
Num peaks: 21
29.00 75.49
41.00 453.29
42.00 98.41
43.00 1063.60
55.00 384.41
56.00 361.05
57.00 1451.18
58.00 47.74
69.00 214.30
70.00 234.65
71.00 949.06
83.00 48.76
84.00 75.11
85.00 683.97
97.00 78.91
98.00 35.58
99.00 262.55
111.00 70.85
113.00 135.55
127.00 85.58
141.00 167.55
Name: Tetracosane
Formula:
MW:
CAS#:
Comments: in-silico spectrum 61
Num peaks: 21
29.00 73.93
41.00 427.21
42.00 92.83
43.00 1002.98
55.00 359.18
56.00 339.09
57.00 1363.35
58.00 44.70
69.00 199.33
70.00 221.10
71.00 889.91
83.00 42.77
84.00 71.22
85.00 641.42
97.00 71.76
98.00 33.15
99.00 244.95
111.00 64.95
113.00 125.97
127.00 79.54
141.00 156.20
Name: Hexadecane, 7,9-dimethyl-
Formula:
MW:
CAS#:
Comments: in-silico spectrum 62
Num peaks: 20
29.00 79.30
41.00 422.89
42.00 91.73
43.00 1022.32
55.00 328.91
56.00 339.77
57.00 1377.98
58.00 45.40
69.00 173.16
70.00 222.65
71.00 900.16
84.00 70.81
85.00 649.05
97.00 45.62
98.00 28.96
99.00 243.74
111.00 48.86
113.00 123.81
127.00 78.99
141.00 156.04
Name: Cis-1,3-di(n-hexyl)cyclohexane
Formula:
MW:
CAS#:
Comments: in-silico spectrum 63
Num peaks: 26
29.00 99.54
41.00 629.70
42.00 120.10
43.00 828.37
55.00 898.65
56.00 358.70
57.00 1067.00
58.00 23.57
67.00 182.64
68.00 84.75
69.00 626.32
70.00 233.64
71.00 624.62
81.00 31.62
82.00 399.24
83.00 734.88
84.00 110.58
85.00 441.50
97.00 482.59
98.00 84.97
99.00 182.43
111.00 322.87
113.00 87.40
125.00 87.30
127.00 33.39
141.00 104.79
Name: Naphthalene, 1-(1-decylundecyl)decahydro-
Formula:
MW:
CAS#:
Comments: in-silico spectrum 64
Num peaks: 28
29.00 119.64
41.00 744.48
42.00 134.75
43.00 853.39
55.00 1128.94
56.00 391.30
57.00 1065.93
58.00 17.78
67.00 294.67
68.00 149.03
69.00 797.48
70.00 257.37
71.00 591.65
81.00 115.05
82.00 578.34
83.00 990.60
84.00 131.73
85.00 416.17
95.00 35.58
96.00 51.54
97.00 635.32
98.00 106.49
99.00 172.49
111.00 418.01
113.00 78.84
125.00 140.55
127.00 19.77
141.00 91.63
Name: Tridecane, 4,8-dimethyl-
Formula:
MW:
CAS#:
Comments: in-silico spectrum 65
Num peaks: 20
29.00 80.60
41.00 406.43
42.00 88.34
43.00 1009.99
55.00 293.78
56.00 331.38
57.00 1355.03
58.00 44.85
69.00 145.88
70.00 217.68
71.00 886.31
84.00 68.18
85.00 639.14
97.00 22.22
98.00 24.90
99.00 236.98
111.00 33.49
113.00 119.26
127.00 76.92
141.00 151.79
Name: 3-Methyltriacontane
Formula:
MW:
CAS#:
Comments: in-silico spectrum 66
Num peaks: 21
29.00 76.17
41.00 445.86
42.00 96.76
43.00 1049.72
55.00 373.68
56.00 355.14
57.00 1428.57
58.00 46.95
69.00 206.91
70.00 231.32
71.00 933.58
83.00 41.72
84.00 74.11
85.00 672.75
97.00 73.49
98.00 34.37
99.00 257.20
111.00 67.11
113.00 132.40
127.00 83.68
141.00 164.19
Name: Undecane, 5-methyl-
Formula:
MW:
CAS#:
Comments: in-silico spectrum 67
Num peaks: 20
29.00 81.90
41.00 398.17
42.00 86.58
43.00 1011.56
55.00 270.09
56.00 328.70
57.00 1353.71
58.00 44.85
69.00 126.62
70.00 216.06
71.00 886.45
84.00 66.56
85.00 639.36
97.00 4.38
98.00 22.34
99.00 234.97
111.00 21.98
113.00 117.55
127.00 76.36
141.00 150.46
Name: 9-methylheptadecane
Formula:
MW:
CAS#:
Comments: in-silico spectrum 68
Num peaks: 20
29.00 79.70
41.00 428.89
42.00 93.08
43.00 1037.56
55.00 334.11
56.00 345.03
57.00 1400.08
58.00 46.11
69.00 176.07
70.00 225.87
71.00 915.05
84.00 71.62
85.00 659.68
97.00 46.71
98.00 29.58
99.00 248.04
111.00 49.79
113.00 126.14
127.00 80.49
141.00 158.73
Name: 11-Methylnonacosane
Formula:
MW:
CAS#:
Comments: in-silico spectrum 69
Num peaks: 21
29.00 76.41
41.00 447.46
42.00 97.08
43.00 1049.31
55.00 377.47
56.00 355.12
57.00 1427.19
58.00 46.89
69.00 209.95
70.00 231.45
71.00 932.29
83.00 46.62
84.00 74.51
85.00 671.89
97.00 76.31
98.00 34.75
99.00 257.02
111.00 68.95
113.00 132.36
127.00 83.50
141.00 164.07
Name: 4,8,12-Trimethyldotriacontane
Formula:
MW:
CAS#:
Comments: in-silico spectrum 70
Num peaks: 21
29.00 75.65
41.00 452.15
42.00 98.03
43.00 1052.13
55.00 388.17
56.00 357.58
57.00 1433.13
58.00 47.12
69.00 218.15
70.00 232.84
71.00 936.25
83.00 58.09
84.00 75.25
85.00 674.69
97.00 83.55
98.00 35.90
99.00 259.11
111.00 73.75
113.00 133.84
127.00 84.20
141.00 165.36
Name: Decane, 5,6-bis(2,2-dimethylpropylidene)-, (E,Z)-
Formula:
MW:
CAS#:
Comments: in-silico spectrum 71
Num peaks: 21
29.00 69.25
41.00 400.46
42.00 85.57
43.00 875.62
55.00 375.06
56.00 301.50
57.00 1182.37
58.00 38.91
69.00 221.77
70.00 197.84
71.00 766.45
83.00 109.61
84.00 67.84
85.00 552.17
97.00 105.87
98.00 34.33
99.00 213.23
111.00 85.57
113.00 110.10
127.00 67.98
141.00 135.61
Name: Undecane, 4,6-dimethyl-
Formula:
MW:
CAS#:
Comments: in-silico spectrum 72
Num peaks: 20
29.00 81.34
41.00 398.13
42.00 86.47
43.00 999.32
55.00 278.35
56.00 325.85
57.00 1336.58
58.00 44.26
69.00 134.33
70.00 214.39
71.00 874.35
84.00 66.91
85.00 630.65
97.00 12.79
98.00 23.11
99.00 232.41
111.00 27.28
113.00 116.40
127.00 75.34
141.00 148.96
Name: 1-Cyclopentyleicosane
Formula:
MW:
CAS#:
Comments: in-silico spectrum 73
Num peaks: 25
29.00 94.54
41.00 623.81
42.00 120.94
43.00 874.73
55.00 865.44
56.00 368.70
57.00 1144.89
58.00 27.64
67.00 148.67
68.00 63.21
69.00 598.23
70.00 239.14
71.00 683.32
82.00 352.63
83.00 680.06
84.00 108.40
85.00 485.82
97.00 453.15
98.00 82.54
99.00 200.57
111.00 304.30
113.00 98.72
125.00 69.86
127.00 42.40
141.00 117.53
Name: 13-Methylnonacosane
Formula:
MW:
CAS#:
Comments: in-silico spectrum 74
Num peaks: 21
29.00 76.43
41.00 446.82
42.00 96.95
43.00 1049.85
55.00 375.52
56.00 355.10
57.00 1427.97
58.00 46.92
69.00 208.36
70.00 231.41
71.00 932.94
83.00 44.02
84.00 74.36
85.00 672.37
97.00 74.80
98.00 34.54
99.00 257.07
111.00 67.98
113.00 132.33
127.00 83.55
141.00 164.11
Name: Hexacosane, 9-octyl-
Formula:
MW:
CAS#:
Comments: in-silico spectrum 75
Num peaks: 21
29.00 74.86
41.00 466.34
42.00 100.63
43.00 1048.71
55.00 425.64
56.00 360.63
57.00 1430.30
58.00 46.83
69.00 248.29
70.00 234.95
71.00 931.77
83.00 105.31
84.00 77.74
85.00 671.45
97.00 111.37
98.00 39.98
99.00 260.50
111.00 91.26
113.00 135.43
127.00 84.24
141.00 165.72
Name: Dodecane, 3-methyl-
Formula:
MW:
CAS#:
Comments: in-silico spectrum 76
Num peaks: 20
29.00 81.43
41.00 403.71
42.00 87.82
43.00 1017.30
55.00 281.21
56.00 332.07
57.00 1363.75
58.00 45.18
69.00 135.16
70.00 218.08
71.00 892.80
84.00 67.51
85.00 643.82
97.00 11.52
98.00 23.58
99.00 237.67
111.00 26.65
113.00 119.23
127.00 77.26
141.00 152.18
Name: Heptane, 2,3-dimethyl-
Formula:
MW:
CAS#:
Comments: in-silico spectrum 77
Num peaks: 20
27.00 4.70
29.00 79.59
41.00 352.96
42.00 76.43
43.00 929.65
55.00 209.46
56.00 295.98
57.00 1232.84
58.00 40.85
69.00 84.59
70.00 195.64
71.00 808.35
84.00 58.92
85.00 583.52
98.00 15.57
99.00 210.02
111.00 1.99
113.00 103.53
127.00 68.16
141.00 134.66
Name: 3,3-Diethyltridecane
Formula:
MW:
CAS#:
Comments: in-silico spectrum 78
Num peaks: 20
29.00 77.48
41.00 407.08
42.00 88.52
43.00 1004.78
55.00 302.29
56.00 331.83
57.00 1354.77
58.00 44.83
69.00 153.22
70.00 217.23
71.00 886.73
84.00 67.96
85.00 639.37
97.00 28.76
98.00 26.14
99.00 238.76
111.00 37.46
113.00 120.93
127.00 77.71
141.00 152.76
Name: Docosane, 7-hexyl-
Formula:
MW:
CAS#:
Comments: in-silico spectrum 79
Num peaks: 21
29.00 76.50
41.00 459.85
42.00 99.22
43.00 1040.12
55.00 412.86
56.00 355.64
57.00 1413.19
58.00 46.29
69.00 238.70
70.00 232.24
71.00 920.16
83.00 93.44
84.00 77.04
85.00 663.07
97.00 103.45
98.00 38.38
99.00 255.80
111.00 86.21
113.00 132.47
127.00 82.50
141.00 163.03
Name: Pentacosane
Formula:
MW:
CAS#:
Comments: in-silico spectrum 80
Num peaks: 21
29.00 73.90
41.00 432.29
42.00 93.90
43.00 1008.86
55.00 368.28
56.00 341.97
57.00 1372.39
58.00 44.99
69.00 206.08
70.00 222.86
71.00 895.68
83.00 51.45
84.00 72.08
85.00 645.54
97.00 77.36
98.00 34.18
99.00 247.16
111.00 68.68
113.00 127.35
127.00 80.24
141.00 157.56
Name: Hexadecane, 2,6,10-trimethyl-
Formula:
MW:
CAS#:
Comments: in-silico spectrum 81
Num peaks: 20
29.00 80.03
41.00 419.29
42.00 91.03
43.00 1026.17
55.00 316.74
56.00 339.57
57.00 1381.89
58.00 45.65
69.00 163.06
70.00 222.48
71.00 903.55
84.00 70.08
85.00 651.41
97.00 36.01
98.00 27.49
99.00 243.60
111.00 42.75
113.00 123.37
127.00 79.06
141.00 156.00
Name: Cyclooctacosane
Formula:
MW:
CAS#:
Comments: in-silico spectrum 82
Num peaks: 26
29.00 90.06
41.00 601.59
42.00 116.56
43.00 829.78
55.00 846.85
56.00 355.49
57.00 1090.09
58.00 25.54
67.00 152.44
68.00 67.77
69.00 587.28
70.00 230.02
71.00 647.91
81.00 7.06
82.00 353.48
83.00 674.39
84.00 104.69
85.00 459.79
97.00 448.45
98.00 81.55
99.00 190.94
111.00 299.93
113.00 93.35
125.00 72.57
127.00 39.66
141.00 110.73
Name: Hexane, 2,3,5-trimethyl-
Formula:
MW:
CAS#:
Comments: in-silico spectrum 83
Num peaks: 19
27.00 7.57
29.00 71.17
41.00 303.19
42.00 65.48
43.00 820.25
55.00 162.33
56.00 258.22
57.00 1084.81
58.00 36.09
69.00 56.27
70.00 170.79
71.00 712.32
84.00 50.44
85.00 514.86
98.00 11.39
99.00 183.38
113.00 89.82
127.00 59.64
141.00 117.24
Name: 6,6-Diethylhexadecane
Formula:
MW:
CAS#:
Comments: in-silico spectrum 84
Num peaks: 20
29.00 76.81
41.00 419.07
42.00 90.97
43.00 1014.98
55.00 326.75
56.00 338.11
57.00 1372.59
58.00 45.27
69.00 172.06
70.00 221.01
71.00 897.67
84.00 69.88
85.00 647.12
97.00 44.70
98.00 28.91
99.00 243.67
111.00 48.04
113.00 124.17
127.00 79.25
141.00 155.84
Name: Pentatriacontane, 13-docosenylidene-
Formula:
MW:
CAS#:
Comments: in-silico spectrum 85
Num peaks: 22
29.00 67.41
41.00 494.56
42.00 104.56
43.00 993.21
55.00 533.68
56.00 358.48
57.00 1365.32
58.00 43.66
69.00 337.22
70.00 232.47
71.00 880.47
82.00 35.64
83.00 254.36
84.00 81.29
85.00 634.24
97.00 202.03
98.00 51.71
99.00 255.23
111.00 147.05
113.00 135.21
127.00 81.83
141.00 159.68
Name: Pentatriacontane
Formula:
MW:
CAS#:
Comments: in-silico spectrum 86
Num peaks: 21
29.00 71.49
41.00 443.78
42.00 96.38
43.00 1023.73
55.00 390.64
56.00 350.47
57.00 1401.28
58.00 45.97
69.00 222.73
70.00 227.39
71.00 915.20
83.00 72.20
84.00 73.56
85.00 659.63
97.00 91.07
98.00 36.92
99.00 255.03
111.00 77.46
113.00 132.28
127.00 83.08
141.00 162.17
Name: Heptane, 3,4-dimethyl-
Formula:
MW:
CAS#:
Comments: in-silico spectrum 87
Num peaks: 19
27.00 5.85
29.00 79.37
41.00 347.73
42.00 75.31
43.00 925.37
55.00 199.36
56.00 293.66
57.00 1226.99
58.00 40.68
69.00 76.68
70.00 194.14
71.00 805.14
84.00 57.90
85.00 581.30
98.00 14.56
99.00 208.56
113.00 102.64
127.00 67.85
141.00 133.56
Name: Pentane, 2,2,3,4-tetramethyl-
Formula:
MW:
CAS#:
Comments: in-silico spectrum 88
Num peaks: 19
27.00 10.06
29.00 63.07
41.00 256.68
42.00 55.15
43.00 722.14
55.00 116.01
56.00 224.36
57.00 953.36
58.00 32.10
69.00 27.36
70.00 148.33
71.00 628.16
84.00 42.35
85.00 454.24
98.00 6.93
99.00 159.66
113.00 77.87
127.00 52.21
141.00 101.66
Name: Nonane, 5-(2-methylpropyl)-
Formula:
MW:
CAS#:
Comments: in-silico spectrum 89
Num peaks: 20
29.00 82.51
41.00 404.75
42.00 87.87
43.00 1011.05
55.00 286.60
56.00 330.06
57.00 1351.84
58.00 44.71
69.00 140.04
70.00 217.11
71.00 884.07
84.00 68.12
85.00 637.64
97.00 16.91
98.00 23.90
99.00 235.23
111.00 30.28
113.00 117.88
127.00 76.17
141.00 150.90
Name: Octadecane, 2,6-dimethyl-
Formula:
MW:
CAS#:
Comments: in-silico spectrum 90
Num peaks: 21
29.00 79.84
41.00 428.41
42.00 92.90
43.00 1034.79
55.00 334.35
56.00 344.28
57.00 1395.77
58.00 45.97
69.00 176.52
70.00 225.44
71.00 911.98
83.00 0.43
84.00 71.58
85.00 657.41
97.00 47.21
98.00 29.47
99.00 247.19
111.00 50.20
113.00 125.71
127.00 80.13
141.00 158.25
Name: Octane, 2-methyl-
Formula:
MW:
CAS#:
Comments: in-silico spectrum 91
Num peaks: 19
27.00 5.46
29.00 83.26
41.00 369.96
42.00 80.37
43.00 990.04
55.00 209.84
56.00 314.46
57.00 1317.17
58.00 43.65
69.00 79.45
70.00 207.17
71.00 864.84
84.00 61.01
85.00 624.32
98.00 15.65
99.00 224.56
113.00 110.76
127.00 73.18
141.00 143.60
