Name: Undecane, 5-cyclohexyl-
Formula:
MW:
CAS#:
Comments: in-silico spectrum 1
Num peaks: 64
15.00 2.97
26.00 7.23
27.00 138.39
28.00 37.67
29.00 225.27
30.00 1.51
39.00 105.60
40.00 25.11
41.00 530.06
42.00 118.75
43.00 639.57
44.00 22.30
50.00 0.41
51.00 9.80
53.00 45.10
54.00 53.38
55.00 597.71
56.00 240.33
57.00 566.33
58.00 23.49
65.00 11.02
66.00 4.97
67.00 154.30
68.00 95.78
69.00 426.26
70.00 191.76
71.00 262.74
72.00 13.15
77.00 10.65
81.00 51.19
82.00 264.61
83.00 487.25
84.00 149.24
85.00 166.94
86.00 8.62
91.00 5.37
95.00 24.60
96.00 44.93
97.00 285.22
98.00 59.80
110.00 16.25
111.00 168.59
112.00 46.01
115.00 1.82
124.00 11.61
125.00 76.63
126.00 28.39
131.00 21.90
132.00 0.42
138.00 7.73
139.00 39.60
140.00 28.76
152.00 6.54
153.00 23.78
154.00 13.51
166.00 8.17
167.00 21.47
180.00 3.29
181.00 8.28
182.00 11.83
195.00 1.79
209.00 2.72
210.00 7.16
223.00 3.63
Name: Cyclohexane, 1,1'-tetradecylidenebis-
Formula:
MW:
CAS#:
Comments: in-silico spectrum 2
Num peaks: 130
26.00 5.31
27.00 72.27
28.00 26.99
29.00 148.27
39.00 74.33
40.00 27.38
41.00 525.36
42.00 103.96
43.00 521.69
44.00 23.96
51.00 7.68
53.00 48.97
54.00 62.01
55.00 746.88
56.00 235.02
57.00 518.96
58.00 21.12
65.00 14.65
66.00 9.42
67.00 220.79
68.00 129.75
69.00 555.88
70.00 180.99
71.00 241.78
72.00 12.68
77.00 21.67
79.00 45.06
80.00 12.55
81.00 130.00
82.00 372.05
83.00 671.34
84.00 132.45
85.00 156.99
86.00 9.57
91.00 25.35
92.00 3.14
93.00 28.57
94.00 9.95
95.00 106.93
96.00 94.54
97.00 415.03
98.00 74.38
99.00 31.17
100.00 3.09
105.00 6.89
107.00 23.04
108.00 16.94
109.00 81.21
110.00 49.66
111.00 243.28
112.00 45.40
113.00 10.88
115.00 0.40
121.00 21.25
122.00 11.64
123.00 39.71
124.00 31.19
125.00 119.06
126.00 27.88
127.00 3.83
128.00 3.77
129.00 2.06
131.00 16.72
132.00 3.03
135.00 22.29
136.00 6.90
137.00 42.79
138.00 22.03
139.00 59.00
140.00 34.93
141.00 7.20
147.00 0.04
148.00 0.87
149.00 45.18
150.00 15.78
151.00 17.33
152.00 19.81
153.00 46.13
154.00 19.70
160.00 0.37
162.00 4.85
163.00 6.33
165.00 8.26
166.00 10.94
167.00 30.07
177.00 5.25
179.00 6.73
180.00 13.84
181.00 15.53
182.00 14.15
183.00 0.33
190.00 3.88
191.00 3.49
194.00 2.39
195.00 9.16
203.00 5.72
204.00 14.63
205.00 8.01
206.00 3.74
208.00 2.32
209.00 8.72
210.00 14.50
217.00 48.01
218.00 33.47
219.00 6.94
222.00 11.83
223.00 18.61
232.00 7.12
233.00 10.29
234.00 2.29
236.00 1.78
237.00 3.88
238.00 1.51
251.00 5.27
257.00 22.77
258.00 6.07
259.00 14.64
260.00 0.86
266.00 9.79
280.00 11.60
285.00 5.71
292.00 1.56
293.00 2.71
294.00 2.39
300.00 9.07
397.00 11.23
400.00 5.83
412.00 39.60
413.00 11.86
420.00 6.54
Name: Decane, 2,3,7-trimethyl-
Formula:
MW:
CAS#:
Comments: in-silico spectrum 3
Num peaks: 40
15.00 8.43
26.00 4.06
27.00 154.66
28.00 29.56
29.00 221.12
30.00 1.91
38.00 0.56
39.00 95.80
40.00 14.10
41.00 327.61
42.00 88.94
43.00 754.04
44.00 20.53
50.00 1.17
51.00 8.31
53.00 22.57
54.00 1.00
55.00 75.85
56.00 162.44
57.00 702.89
58.00 30.66
65.00 2.00
69.00 3.19
70.00 138.71
71.00 422.56
72.00 20.11
84.00 104.92
85.00 276.28
86.00 14.84
98.00 13.39
99.00 12.04
100.00 0.68
112.00 24.98
126.00 19.56
127.00 5.40
128.00 0.06
131.00 10.13
140.00 4.60
154.00 2.03
182.00 0.76
Name: Cyclopropane, 1-(1,2-dimethylpropyl)-1-methyl-2-nonyl-
Formula:
MW:
CAS#:
Comments: in-silico spectrum 4
Num peaks: 74
15.00 2.68
26.00 6.57
27.00 107.02
28.00 30.62
29.00 179.08
39.00 86.54
40.00 26.23
41.00 469.05
42.00 100.69
43.00 562.90
44.00 23.30
50.00 1.60
51.00 10.89
52.00 0.10
53.00 45.73
54.00 43.82
55.00 553.57
56.00 213.65
57.00 524.88
58.00 21.06
65.00 13.54
66.00 4.56
67.00 147.76
68.00 87.56
69.00 401.18
70.00 171.18
71.00 257.16
72.00 13.40
77.00 18.59
79.00 14.20
81.00 69.22
82.00 242.00
83.00 454.10
84.00 127.82
85.00 165.61
86.00 9.24
91.00 14.23
95.00 46.92
96.00 49.74
97.00 271.63
98.00 55.39
99.00 12.81
100.00 1.26
109.00 19.01
110.00 25.11
111.00 160.06
112.00 39.11
115.00 5.68
124.00 18.34
125.00 74.62
126.00 25.63
128.00 3.01
129.00 4.82
131.00 22.81
132.00 4.52
137.00 6.36
138.00 11.69
139.00 37.67
140.00 27.03
141.00 0.72
145.00 1.53
152.00 11.15
153.00 26.91
154.00 14.08
165.00 3.29
166.00 6.24
167.00 19.91
180.00 5.74
181.00 5.77
182.00 9.84
195.00 1.74
209.00 1.45
210.00 7.59
223.00 3.87
Name: Z-14-Nonacosane
Formula:
MW:
CAS#:
Comments: in-silico spectrum 5
Num peaks: 58
26.00 4.14
27.00 101.16
28.00 26.87
29.00 175.75
30.00 0.20
39.00 79.65
40.00 15.58
41.00 418.58
42.00 102.63
43.00 696.72
44.00 20.31
51.00 2.75
53.00 29.05
54.00 33.69
55.00 384.43
56.00 207.21
57.00 713.10
58.00 31.98
65.00 5.38
67.00 72.12
68.00 50.07
69.00 254.83
70.00 161.66
71.00 414.16
72.00 20.84
81.00 2.66
82.00 113.85
83.00 251.09
84.00 118.44
85.00 274.09
86.00 15.98
96.00 15.33
97.00 153.37
98.00 47.88
99.00 47.87
100.00 4.46
111.00 88.89
112.00 41.44
113.00 24.73
124.00 1.52
125.00 39.95
126.00 28.78
127.00 19.37
128.00 1.31
131.00 0.01
139.00 20.31
140.00 24.80
141.00 16.06
142.00 1.39
153.00 8.50
154.00 14.98
155.00 8.41
166.00 3.70
167.00 11.50
181.00 1.95
182.00 12.53
183.00 6.14
210.00 9.97
Name: 11-Methylpentacosane
Formula:
MW:
CAS#:
Comments: in-silico spectrum 6
Num peaks: 51
26.00 1.04
27.00 67.54
28.00 15.61
29.00 123.36
39.00 53.01
40.00 8.12
41.00 285.92
42.00 75.69
43.00 702.70
44.00 19.27
53.00 15.13
54.00 7.48
55.00 145.45
56.00 157.09
57.00 786.61
58.00 36.33
65.00 0.83
69.00 65.89
70.00 122.17
71.00 515.59
72.00 26.03
84.00 80.28
85.00 346.08
86.00 20.77
97.00 3.12
98.00 28.77
99.00 83.59
100.00 7.48
112.00 29.65
113.00 55.45
114.00 4.04
126.00 23.51
127.00 43.75
128.00 3.90
140.00 14.71
141.00 31.47
142.00 3.51
154.00 12.57
155.00 25.70
156.00 2.67
169.00 9.72
170.00 0.86
182.00 7.83
183.00 15.77
184.00 0.46
197.00 1.26
210.00 5.98
211.00 8.86
226.00 0.09
239.00 3.11
281.00 0.71
Name: Cyclopentane, (4-octyldodecyl)-
Formula:
MW:
CAS#:
Comments: in-silico spectrum 7
Num peaks: 71
26.00 5.37
27.00 98.86
28.00 29.97
29.00 179.70
39.00 84.84
40.00 21.71
41.00 499.05
42.00 110.81
43.00 638.08
44.00 22.29
51.00 5.40
53.00 40.17
54.00 51.84
55.00 591.18
56.00 233.30
57.00 631.43
58.00 27.24
65.00 9.95
66.00 4.91
67.00 152.20
68.00 94.74
69.00 422.62
70.00 181.13
71.00 329.24
72.00 16.75
77.00 9.28
81.00 62.79
82.00 256.51
83.00 482.82
84.00 134.65
85.00 215.32
86.00 12.45
91.00 9.19
95.00 37.38
96.00 54.83
97.00 295.31
98.00 63.36
99.00 33.43
100.00 3.20
109.00 1.04
110.00 22.63
111.00 173.18
112.00 46.14
113.00 12.34
124.00 15.00
125.00 82.42
126.00 29.70
127.00 7.60
128.00 1.51
131.00 9.53
138.00 9.84
139.00 41.48
140.00 31.16
141.00 8.81
152.00 8.58
153.00 27.40
154.00 17.57
155.00 0.82
166.00 8.38
167.00 22.13
180.00 4.82
181.00 9.93
182.00 14.29
183.00 1.51
195.00 3.99
209.00 4.85
210.00 12.40
222.00 3.72
223.00 8.14
251.00 0.09
280.00 1.73
Name: 3-Ethyl-3-methylheptadecane
Formula:
MW:
CAS#:
Comments: in-silico spectrum 8
Num peaks: 45
26.00 1.45
27.00 83.68
28.00 17.80
29.00 139.48
39.00 60.05
40.00 9.58
41.00 284.16
42.00 74.77
43.00 711.23
44.00 20.14
51.00 1.62
53.00 16.78
54.00 2.79
55.00 111.89
56.00 153.00
57.00 770.34
58.00 35.03
65.00 1.21
69.00 37.94
70.00 122.69
71.00 501.37
72.00 25.35
84.00 82.06
85.00 335.07
86.00 19.98
98.00 23.17
99.00 70.37
100.00 6.24
112.00 26.69
113.00 45.56
114.00 3.11
126.00 21.54
127.00 37.16
128.00 3.76
140.00 10.86
141.00 25.37
142.00 2.67
154.00 9.64
155.00 21.04
156.00 1.98
169.00 1.93
182.00 5.14
183.00 11.31
210.00 1.48
211.00 3.70
Name: 5-Ethyl-5-methylheptadecane
Formula:
MW:
CAS#:
Comments: in-silico spectrum 9
Num peaks: 45
26.00 1.41
27.00 82.29
28.00 17.57
29.00 137.65
39.00 59.29
40.00 9.55
41.00 282.31
42.00 74.20
43.00 708.47
44.00 20.12
51.00 1.57
53.00 16.72
54.00 2.66
55.00 111.47
56.00 152.32
57.00 769.33
58.00 34.99
65.00 1.24
69.00 37.92
70.00 122.08
71.00 501.43
72.00 25.40
84.00 81.39
85.00 335.22
86.00 20.03
98.00 23.18
99.00 71.20
100.00 6.31
112.00 26.57
113.00 46.26
114.00 3.20
126.00 21.48
127.00 37.62
128.00 3.85
140.00 10.91
141.00 25.76
142.00 2.71
154.00 9.72
155.00 21.39
156.00 2.02
169.00 2.44
182.00 5.14
183.00 11.54
210.00 1.60
211.00 4.01
Name: Tetracosane, 11-decyl-
Formula:
MW:
CAS#:
Comments: in-silico spectrum 10
Num peaks: 84
27.00 28.84
28.00 9.42
29.00 80.04
39.00 34.35
40.00 6.25
41.00 272.00
42.00 70.18
43.00 680.53
44.00 19.11
53.00 12.93
54.00 10.50
55.00 185.90
56.00 156.39
57.00 823.82
58.00 38.54
65.00 0.82
67.00 3.94
68.00 8.38
69.00 101.50
70.00 116.45
71.00 556.19
72.00 28.71
83.00 43.77
84.00 70.32
85.00 376.64
86.00 23.57
96.00 1.11
97.00 46.47
98.00 36.23
99.00 115.51
100.00 10.54
111.00 22.61
112.00 31.76
113.00 80.48
114.00 7.00
125.00 11.22
126.00 25.50
127.00 60.77
128.00 5.96
139.00 3.48
140.00 19.54
141.00 45.75
142.00 5.17
154.00 17.61
155.00 37.99
156.00 4.52
167.00 1.68
168.00 20.32
169.00 27.02
170.00 3.01
182.00 11.04
183.00 25.25
184.00 2.40
196.00 7.98
197.00 17.06
210.00 12.49
211.00 19.95
212.00 0.20
224.00 15.47
225.00 17.02
226.00 3.78
238.00 7.66
239.00 21.26
240.00 2.58
252.00 5.49
253.00 11.36
266.00 5.19
267.00 10.73
268.00 1.78
280.00 7.66
281.00 14.83
282.00 2.50
294.00 2.00
295.00 13.64
296.00 5.78
308.00 2.86
309.00 10.62
310.00 1.04
323.00 4.53
324.00 1.32
337.00 2.95
338.00 0.51
351.00 5.51
352.00 0.23
Name: Nonacosane, 2-methyl-
Formula:
MW:
CAS#:
Comments: in-silico spectrum 11
Num peaks: 68
26.00 0.26
27.00 48.83
28.00 12.37
29.00 101.67
39.00 43.46
40.00 6.93
41.00 273.37
42.00 71.58
43.00 690.70
44.00 19.15
53.00 13.50
54.00 7.64
55.00 152.81
56.00 153.93
57.00 803.06
58.00 37.34
65.00 0.53
68.00 1.25
69.00 73.29
70.00 117.52
71.00 535.68
72.00 27.36
83.00 4.75
84.00 73.98
85.00 361.13
86.00 22.12
97.00 15.77
98.00 31.06
99.00 98.69
100.00 8.91
111.00 4.81
112.00 29.83
113.00 67.51
114.00 5.52
125.00 0.31
126.00 23.87
127.00 51.98
128.00 4.85
140.00 16.12
141.00 38.06
142.00 4.22
154.00 14.50
155.00 31.66
156.00 3.59
168.00 8.51
169.00 17.84
170.00 1.88
182.00 8.88
183.00 20.14
184.00 1.30
197.00 8.80
210.00 8.41
211.00 14.02
224.00 2.53
225.00 7.55
226.00 1.78
238.00 1.20
239.00 11.89
240.00 0.79
253.00 2.23
267.00 2.82
268.00 0.02
280.00 0.51
281.00 7.10
282.00 0.79
295.00 1.99
296.00 2.41
309.00 2.86
Name: Heptane, 2,4-dimethyl-
Formula:
MW:
CAS#:
Comments: in-silico spectrum 12
Num peaks: 35
15.00 26.42
26.00 6.43
27.00 228.13
28.00 41.47
29.00 303.78
30.00 5.65
38.00 8.20
39.00 132.05
40.00 18.40
41.00 361.80
42.00 100.91
43.00 782.16
44.00 20.51
50.00 7.16
51.00 15.37
52.00 1.98
53.00 27.72
55.00 23.81
56.00 166.41
57.00 612.33
58.00 25.16
65.00 2.48
70.00 151.68
71.00 327.95
72.00 14.29
84.00 126.34
85.00 206.83
86.00 9.34
98.00 1.29
112.00 21.88
115.00 8.81
126.00 16.41
129.00 1.53
131.00 29.18
132.00 1.87
Name: 3,3-Diethylheptadecane
Formula:
MW:
CAS#:
Comments: in-silico spectrum 13
Num peaks: 46
26.00 1.42
27.00 78.87
28.00 17.24
29.00 134.77
39.00 58.13
40.00 9.46
41.00 286.69
42.00 75.36
43.00 710.31
44.00 20.07
51.00 1.05
53.00 16.79
54.00 4.28
55.00 125.37
56.00 155.21
57.00 777.43
58.00 35.48
65.00 1.34
69.00 49.16
70.00 123.42
71.00 507.01
72.00 25.68
84.00 82.00
85.00 339.31
86.00 20.30
98.00 25.19
99.00 74.82
100.00 6.66
112.00 27.77
113.00 48.88
114.00 3.39
126.00 22.31
127.00 39.38
128.00 3.94
140.00 12.25
141.00 27.46
142.00 2.95
154.00 10.68
155.00 22.58
156.00 2.16
169.00 4.36
170.00 0.03
182.00 6.01
183.00 12.77
210.00 2.98
211.00 5.35
Name: Octane, 3,5-dimethyl-
Formula:
MW:
CAS#:
Comments: in-silico spectrum 14
Num peaks: 35
15.00 20.22
26.00 5.48
27.00 201.10
28.00 36.87
29.00 272.52
30.00 4.29
38.00 5.57
39.00 118.22
40.00 16.53
41.00 343.41
42.00 95.16
43.00 765.15
44.00 20.27
50.00 5.09
51.00 12.77
52.00 0.62
53.00 25.26
55.00 33.98
56.00 161.95
57.00 637.19
58.00 26.86
65.00 2.09
70.00 144.73
71.00 357.72
72.00 16.15
84.00 117.02
85.00 228.96
86.00 11.16
98.00 4.66
112.00 22.25
115.00 5.63
126.00 17.01
129.00 0.16
131.00 22.23
132.00 0.78
Name: Decane, 2,4,6-trimethyl-
Formula:
MW:
CAS#:
Comments: in-silico spectrum 15
Num peaks: 39
15.00 10.39
26.00 4.33
27.00 160.47
28.00 30.57
29.00 226.70
30.00 2.33
38.00 1.52
39.00 98.51
40.00 14.45
41.00 325.80
42.00 89.00
43.00 743.61
44.00 20.13
50.00 1.87
51.00 9.09
53.00 22.99
54.00 0.74
55.00 69.07
56.00 160.71
57.00 680.43
58.00 29.53
65.00 2.19
70.00 138.13
71.00 404.41
72.00 19.10
84.00 105.82
85.00 263.73
86.00 13.97
98.00 12.07
99.00 4.96
100.00 0.02
112.00 24.42
115.00 1.06
126.00 18.99
127.00 1.55
131.00 12.35
140.00 3.98
154.00 1.15
182.00 0.27
Name: Eicosane, 2-cyclohexyl-
Formula:
MW:
CAS#:
Comments: in-silico spectrum 16
Num peaks: 77
26.00 5.10
27.00 82.78
28.00 26.93
29.00 156.89
39.00 75.30
40.00 21.75
41.00 472.07
42.00 102.12
43.00 579.97
44.00 21.58
51.00 5.44
53.00 39.79
54.00 50.20
55.00 588.35
56.00 220.37
57.00 585.38
58.00 25.05
65.00 10.78
66.00 5.40
67.00 156.81
68.00 95.62
69.00 425.86
70.00 170.17
71.00 305.03
72.00 15.66
77.00 12.01
79.00 10.65
81.00 74.83
82.00 263.23
83.00 492.41
84.00 124.91
85.00 200.16
86.00 11.82
91.00 13.14
95.00 51.37
96.00 60.74
97.00 304.07
98.00 62.61
99.00 37.16
100.00 3.51
109.00 20.26
110.00 27.87
111.00 178.33
112.00 43.42
113.00 16.13
124.00 18.25
125.00 86.22
126.00 28.00
127.00 9.78
128.00 2.51
131.00 9.79
137.00 5.53
138.00 12.12
139.00 43.44
140.00 31.11
141.00 10.85
142.00 0.01
152.00 10.97
153.00 30.82
154.00 17.84
155.00 2.73
166.00 8.42
167.00 22.90
180.00 6.57
181.00 10.46
182.00 13.69
183.00 2.88
195.00 5.19
209.00 5.72
210.00 13.12
222.00 5.72
223.00 10.51
237.00 0.23
251.00 0.94
266.00 3.13
280.00 5.25
420.00 1.34
Name: Dodecane, 6-cyclohexyl-
Formula:
MW:
CAS#:
Comments: in-silico spectrum 17
Num peaks: 66
15.00 1.66
26.00 7.01
27.00 132.46
28.00 36.65
29.00 218.50
30.00 1.19
39.00 102.64
40.00 24.79
41.00 527.25
42.00 117.63
43.00 634.53
44.00 22.26
51.00 9.26
53.00 44.68
54.00 53.79
55.00 603.30
56.00 239.66
57.00 569.68
58.00 23.73
65.00 11.00
66.00 5.16
67.00 156.75
68.00 97.17
69.00 431.25
70.00 190.44
71.00 267.21
72.00 13.41
77.00 10.75
81.00 54.93
82.00 268.58
83.00 494.65
84.00 147.46
85.00 170.44
86.00 8.96
91.00 6.30
95.00 28.52
96.00 47.74
97.00 291.57
98.00 60.77
99.00 1.39
100.00 0.13
110.00 17.95
111.00 172.19
112.00 46.11
115.00 1.14
124.00 12.54
125.00 78.98
126.00 28.53
131.00 20.48
132.00 0.20
138.00 8.39
139.00 40.68
140.00 29.32
152.00 7.16
153.00 25.01
154.00 14.13
166.00 8.40
167.00 21.98
180.00 3.81
181.00 8.85
182.00 12.22
195.00 2.36
209.00 3.28
210.00 8.01
222.00 0.70
223.00 4.76
Name: Dodecane
Formula:
MW:
CAS#:
Comments: in-silico spectrum 18
Num peaks: 35
15.00 11.38
26.00 4.34
27.00 176.18
28.00 32.91
29.00 248.27
30.00 3.29
38.00 1.83
39.00 106.70
40.00 13.60
41.00 344.77
42.00 95.55
43.00 778.74
44.00 19.82
50.00 1.43
51.00 8.48
53.00 21.73
54.00 2.56
55.00 67.38
56.00 167.22
57.00 695.05
58.00 30.36
65.00 0.65
70.00 144.12
71.00 405.93
72.00 18.76
84.00 113.07
85.00 263.31
86.00 13.59
98.00 11.33
112.00 25.79
126.00 19.61
131.00 11.93
140.00 3.14
154.00 0.16
182.00 0.53
Name: Cyclopentane, (2-decyldodecyl)-
Formula:
MW:
CAS#:
Comments: in-silico spectrum 19
Num peaks: 75
26.00 4.86
27.00 86.37
28.00 27.33
29.00 163.49
39.00 77.53
40.00 20.70
41.00 479.44
42.00 105.96
43.00 622.11
44.00 21.91
51.00 4.42
53.00 38.41
54.00 49.91
55.00 576.33
56.00 226.13
57.00 633.13
58.00 27.50
65.00 9.73
66.00 4.76
67.00 148.42
68.00 92.11
69.00 412.69
70.00 174.35
71.00 338.63
72.00 17.31
77.00 9.31
79.00 2.36
81.00 65.17
82.00 248.54
83.00 470.99
84.00 127.72
85.00 222.76
86.00 13.15
91.00 10.43
95.00 40.69
96.00 56.17
97.00 291.37
98.00 62.80
99.00 42.24
100.00 4.03
109.00 6.41
110.00 24.10
111.00 170.56
112.00 44.98
113.00 19.62
124.00 15.85
125.00 82.11
126.00 29.32
127.00 12.76
128.00 2.23
131.00 6.73
138.00 10.33
139.00 41.16
140.00 31.18
141.00 12.86
142.00 0.33
152.00 9.16
153.00 28.03
154.00 18.26
155.00 4.60
166.00 8.15
167.00 21.85
180.00 5.15
181.00 9.92
182.00 14.44
183.00 4.21
195.00 4.45
209.00 5.21
210.00 13.45
222.00 4.59
223.00 9.08
251.00 0.26
266.00 2.36
280.00 4.51
420.00 0.56
Name: Octadecane, 6-methyl-
Formula:
MW:
CAS#:
Comments: in-silico spectrum 20
Num peaks: 43
26.00 2.54
27.00 109.93
28.00 22.57
29.00 172.16
30.00 0.05
39.00 74.16
40.00 10.55
41.00 310.71
42.00 83.80
43.00 732.87
44.00 19.60
51.00 3.02
53.00 18.28
54.00 5.77
55.00 118.74
56.00 162.17
57.00 752.18
58.00 34.03
65.00 1.08
69.00 40.41
70.00 131.48
71.00 473.47
72.00 23.22
84.00 93.47
85.00 314.19
86.00 17.90
98.00 22.37
99.00 49.54
100.00 4.25
112.00 28.33
113.00 28.41
114.00 0.86
126.00 22.16
127.00 25.35
128.00 1.77
140.00 10.57
141.00 16.41
142.00 1.85
154.00 7.85
155.00 12.38
156.00 0.70
182.00 5.08
183.00 5.74
Name: 5-Methyltricosane
Formula:
MW:
CAS#:
Comments: in-silico spectrum 21
Num peaks: 46
26.00 1.49
27.00 79.93
28.00 17.64
29.00 137.43
39.00 59.13
40.00 8.84
41.00 292.24
42.00 77.85
43.00 709.56
44.00 19.34
51.00 0.33
53.00 16.06
54.00 6.91
55.00 136.77
56.00 158.12
57.00 774.19
58.00 35.57
65.00 0.93
69.00 57.94
70.00 124.58
71.00 501.70
72.00 25.14
84.00 83.92
85.00 335.68
86.00 19.86
98.00 26.77
99.00 73.29
100.00 6.51
112.00 29.18
113.00 47.33
114.00 3.08
126.00 23.06
127.00 38.21
128.00 3.27
140.00 13.45
141.00 26.94
142.00 2.99
154.00 11.11
155.00 21.70
156.00 2.07
169.00 4.18
170.00 0.16
182.00 6.98
183.00 12.77
210.00 4.12
211.00 5.33
Name: Dodecane, 2,6,11-trimethyl-
Formula:
MW:
CAS#:
Comments: in-silico spectrum 22
Num peaks: 43
15.00 4.69
26.00 3.39
27.00 134.28
28.00 26.11
29.00 195.85
30.00 1.01
39.00 84.97
40.00 12.70
41.00 305.36
42.00 82.69
43.00 722.84
44.00 19.90
50.00 0.00
51.00 6.80
53.00 20.63
54.00 0.69
55.00 75.66
56.00 155.09
57.00 699.25
58.00 30.90
65.00 1.89
69.00 6.47
70.00 130.63
71.00 429.93
72.00 20.80
84.00 96.32
85.00 282.99
86.00 15.66
98.00 14.89
99.00 25.48
100.00 1.96
112.00 24.47
113.00 10.11
126.00 19.36
127.00 12.85
128.00 0.93
131.00 5.92
140.00 5.79
141.00 5.76
142.00 0.51
154.00 3.56
155.00 3.48
182.00 1.55
Name: 13,17,21-Trimethylpentatriacontane
Formula:
MW:
CAS#:
Comments: in-silico spectrum 23
Num peaks: 108
28.00 3.02
29.00 34.74
39.00 15.46
40.00 5.28
41.00 240.95
42.00 59.84
43.00 631.54
44.00 18.95
53.00 11.31
54.00 9.95
55.00 201.19
56.00 146.63
57.00 825.00
58.00 38.65
65.00 1.40
67.00 14.18
68.00 13.24
69.00 119.86
70.00 105.39
71.00 573.97
72.00 30.43
81.00 8.27
83.00 71.65
84.00 56.84
85.00 391.85
86.00 25.65
91.00 4.42
96.00 16.09
97.00 74.72
98.00 39.96
99.00 141.33
100.00 12.99
110.00 7.06
111.00 38.77
112.00 31.19
113.00 101.44
114.00 9.60
124.00 5.15
125.00 22.60
126.00 25.80
127.00 75.03
128.00 8.25
138.00 0.73
139.00 8.95
140.00 22.44
141.00 57.63
142.00 6.48
152.00 0.83
153.00 6.34
154.00 20.95
155.00 48.23
156.00 5.85
167.00 4.11
168.00 39.61
169.00 41.82
170.00 4.60
182.00 12.55
183.00 32.81
184.00 3.78
196.00 27.96
197.00 31.19
198.00 2.65
210.00 17.05
211.00 29.35
212.00 1.42
224.00 36.55
225.00 32.33
226.00 6.38
238.00 17.70
239.00 37.71
240.00 6.07
252.00 21.05
253.00 26.72
254.00 1.90
266.00 15.25
267.00 23.84
268.00 4.65
280.00 18.16
281.00 26.76
282.00 4.92
294.00 18.43
295.00 32.82
296.00 10.97
308.00 13.32
309.00 23.62
310.00 4.37
322.00 7.28
323.00 18.01
324.00 5.12
336.00 12.79
337.00 18.90
338.00 5.94
350.00 9.90
351.00 23.49
352.00 6.78
364.00 0.96
365.00 6.58
366.00 1.54
379.00 6.68
392.00 1.34
393.00 7.54
394.00 2.67
421.00 4.43
435.00 0.77
449.00 4.32
450.00 1.42
463.00 1.19
477.00 2.93
Name: Tridecane, 3-cyclohexyl-
Formula:
MW:
CAS#:
Comments: in-silico spectrum 24
Num peaks: 66
15.00 1.27
26.00 6.85
27.00 127.95
28.00 35.66
29.00 212.19
30.00 0.97
39.00 99.84
40.00 24.53
41.00 518.41
42.00 115.29
43.00 623.77
44.00 22.06
51.00 9.06
53.00 44.14
54.00 52.85
55.00 596.77
56.00 235.88
57.00 563.91
58.00 23.49
65.00 11.02
66.00 5.10
67.00 155.49
68.00 96.07
69.00 427.14
70.00 187.23
71.00 266.24
72.00 13.40
77.00 11.04
81.00 56.21
82.00 265.82
83.00 490.12
84.00 144.44
85.00 170.14
86.00 9.03
91.00 6.97
95.00 30.31
96.00 48.17
97.00 289.71
98.00 60.23
99.00 3.56
100.00 0.35
110.00 18.63
111.00 171.01
112.00 45.34
115.00 1.17
124.00 12.97
125.00 78.71
126.00 28.16
131.00 19.95
132.00 0.37
138.00 8.65
139.00 40.49
140.00 29.11
152.00 7.49
153.00 25.28
154.00 14.24
166.00 8.27
167.00 21.83
180.00 4.01
181.00 8.77
182.00 12.12
195.00 2.49
209.00 3.35
210.00 8.20
222.00 0.96
223.00 5.06
Name: 13-Methylheptacosane
Formula:
MW:
CAS#:
Comments: in-silico spectrum 25
Num peaks: 60
26.00 0.65
27.00 56.46
28.00 13.77
29.00 110.56
39.00 47.47
40.00 7.53
41.00 279.42
42.00 73.51
43.00 693.92
44.00 19.16
53.00 14.35
54.00 7.93
55.00 152.89
56.00 155.70
57.00 794.35
58.00 36.84
65.00 0.77
68.00 1.09
69.00 72.98
70.00 119.71
71.00 525.67
72.00 26.72
83.00 4.06
84.00 76.85
85.00 353.79
86.00 21.51
97.00 13.01
98.00 30.44
99.00 92.30
100.00 8.31
111.00 3.47
112.00 29.94
113.00 62.37
114.00 4.87
126.00 23.85
127.00 48.45
128.00 4.46
140.00 15.80
141.00 35.34
142.00 3.94
154.00 13.83
155.00 29.11
156.00 3.18
168.00 4.53
169.00 14.52
170.00 1.45
182.00 8.56
183.00 18.34
184.00 0.98
197.00 5.69
210.00 7.63
211.00 11.92
225.00 4.23
226.00 1.09
239.00 8.25
267.00 0.08
281.00 4.58
282.00 0.22
296.00 1.32
309.00 0.13
Name: 3-Ethyl-3-methylnonadecane
Formula:
MW:
CAS#:
Comments: in-silico spectrum 26
Num peaks: 48
26.00 1.12
27.00 72.40
28.00 16.04
29.00 126.74
39.00 54.60
40.00 9.05
41.00 279.34
42.00 73.11
43.00 702.73
44.00 20.00
51.00 0.56
53.00 16.14
54.00 3.75
55.00 123.17
56.00 152.61
57.00 778.91
58.00 35.60
65.00 1.23
69.00 48.21
70.00 120.85
71.00 511.61
72.00 26.04
84.00 79.09
85.00 342.89
86.00 20.68
98.00 25.35
99.00 79.41
100.00 7.08
112.00 27.36
113.00 52.67
114.00 3.90
126.00 22.14
127.00 41.96
128.00 4.29
140.00 12.34
141.00 29.44
142.00 3.13
154.00 11.10
155.00 24.50
156.00 2.45
169.00 6.94
170.00 0.35
182.00 6.09
183.00 14.05
184.00 0.03
210.00 3.49
211.00 6.95
239.00 1.06
Name: Decane, 2,6,6-trimethyl-
Formula:
MW:
CAS#:
Comments: in-silico spectrum 27
Num peaks: 42
15.00 7.68
26.00 3.58
27.00 140.35
28.00 26.90
29.00 200.69
30.00 0.88
38.00 0.11
39.00 87.37
40.00 13.86
41.00 300.98
42.00 80.82
43.00 722.31
44.00 20.66
50.00 1.39
51.00 8.42
53.00 21.96
55.00 56.82
56.00 151.52
57.00 689.00
58.00 30.02
65.00 2.47
70.00 130.03
71.00 423.07
72.00 20.62
84.00 95.93
85.00 277.83
86.00 15.41
98.00 11.76
99.00 20.15
100.00 1.46
112.00 22.46
113.00 6.33
115.00 0.50
126.00 18.13
127.00 10.35
128.00 1.26
131.00 9.21
140.00 3.64
141.00 3.30
142.00 0.13
154.00 2.08
155.00 1.73
Name: 2-Methyltetracosane
Formula:
MW:
CAS#:
Comments: in-silico spectrum 28
Num peaks: 45
26.00 1.24
27.00 76.76
28.00 16.98
29.00 133.81
39.00 57.38
40.00 8.46
41.00 289.28
42.00 76.94
43.00 711.05
44.00 19.39
53.00 15.48
54.00 6.50
55.00 134.12
56.00 157.17
57.00 781.24
58.00 35.95
65.00 0.69
69.00 55.60
70.00 123.50
71.00 508.62
72.00 25.53
84.00 82.55
85.00 340.61
86.00 20.25
98.00 26.81
99.00 76.37
100.00 6.80
112.00 29.02
113.00 49.83
114.00 3.43
126.00 22.98
127.00 39.96
128.00 3.44
140.00 13.35
141.00 28.17
142.00 3.13
154.00 11.33
155.00 22.97
156.00 2.32
169.00 5.66
170.00 0.38
182.00 7.04
183.00 13.59
210.00 4.25
211.00 6.23
Name: Undecane, 5,7-dimethyl-
Formula:
MW:
CAS#:
Comments: in-silico spectrum 29
Num peaks: 37
15.00 9.28
26.00 3.84
27.00 156.68
28.00 29.41
29.00 222.34
30.00 1.99
38.00 0.84
39.00 95.90
40.00 13.34
41.00 318.91
42.00 87.23
43.00 747.79
44.00 20.06
50.00 1.30
51.00 8.17
53.00 21.20
55.00 57.29
56.00 157.54
57.00 690.94
58.00 30.24
65.00 1.33
70.00 135.31
71.00 414.83
72.00 19.61
84.00 103.05
85.00 270.89
86.00 14.49
98.00 11.12
99.00 8.33
100.00 0.40
112.00 23.65
126.00 18.52
127.00 3.64
131.00 9.87
140.00 3.00
154.00 0.97
182.00 0.05
Name: Octane, 2,6,6-trimethyl-
Formula:
MW:
CAS#:
Comments: in-silico spectrum 30
Num peaks: 36
15.00 13.77
26.00 4.52
27.00 164.80
28.00 30.92
29.00 228.24
30.00 2.14
38.00 2.71
39.00 99.58
40.00 15.68
41.00 314.09
42.00 85.05
43.00 732.86
44.00 20.85
50.00 3.56
51.00 10.99
53.00 24.27
55.00 42.63
56.00 153.80
57.00 660.74
58.00 28.21
65.00 2.93
70.00 135.06
71.00 392.83
72.00 18.72
84.00 103.41
85.00 255.54
86.00 13.55
98.00 8.06
112.00 21.54
115.00 3.88
126.00 17.24
128.00 0.07
129.00 1.06
131.00 16.06
132.00 1.22
140.00 1.28
Name: 3,3-Diethylpentadecane
Formula:
MW:
CAS#:
Comments: in-silico spectrum 31
Num peaks: 44
26.00 1.73
27.00 90.28
28.00 19.00
29.00 147.66
39.00 63.63
40.00 10.00
41.00 291.43
42.00 77.01
43.00 719.19
44.00 20.21
51.00 2.11
53.00 17.41
54.00 3.25
55.00 113.50
56.00 155.54
57.00 769.04
58.00 34.90
65.00 1.30
69.00 38.35
70.00 125.25
71.00 496.91
72.00 24.99
84.00 84.97
85.00 331.56
86.00 19.60
98.00 22.93
99.00 65.70
100.00 5.80
112.00 27.05
113.00 41.71
114.00 2.60
126.00 21.69
127.00 34.54
128.00 3.40
140.00 10.70
141.00 23.34
142.00 2.48
154.00 9.20
155.00 19.10
156.00 1.69
182.00 5.05
183.00 10.00
210.00 0.92
211.00 2.07
Name: Hexacontane
Formula:
MW:
CAS#:
Comments: in-silico spectrum 32
Num peaks: 131
40.00 1.74
41.00 217.19
42.00 51.25
43.00 597.18
44.00 18.95
53.00 6.83
54.00 15.28
55.00 260.69
56.00 145.42
57.00 881.50
58.00 42.00
65.00 0.71
67.00 38.08
68.00 28.10
69.00 172.83
70.00 95.38
71.00 635.27
72.00 34.12
79.00 9.19
80.00 0.74
81.00 44.35
82.00 32.28
83.00 147.38
84.00 42.08
85.00 439.06
86.00 30.26
91.00 11.86
92.00 0.60
95.00 29.93
96.00 44.90
97.00 141.34
98.00 51.29
99.00 190.42
100.00 17.15
105.00 3.04
109.00 12.68
110.00 23.52
111.00 76.74
112.00 35.11
113.00 139.52
114.00 13.77
123.00 1.72
124.00 13.83
125.00 47.29
126.00 29.07
127.00 101.26
128.00 10.56
138.00 7.13
139.00 20.62
140.00 29.92
141.00 79.14
142.00 8.60
152.00 6.43
153.00 18.74
154.00 27.99
155.00 66.57
156.00 8.13
166.00 2.25
167.00 9.69
168.00 73.77
169.00 68.58
170.00 7.67
180.00 0.57
181.00 4.09
182.00 17.18
183.00 47.08
184.00 5.98
194.00 0.42
195.00 5.81
196.00 62.61
197.00 56.14
198.00 7.88
208.00 0.86
209.00 4.15
210.00 26.97
211.00 46.09
212.00 3.52
222.00 6.72
223.00 9.98
224.00 73.74
225.00 59.62
226.00 11.81
236.00 0.38
237.00 3.66
238.00 35.27
239.00 65.26
240.00 10.79
252.00 47.94
253.00 52.99
254.00 7.02
266.00 33.12
267.00 46.63
268.00 9.32
280.00 37.86
281.00 48.16
282.00 8.89
294.00 47.87
295.00 66.25
296.00 19.94
308.00 31.56
309.00 45.89
310.00 9.93
322.00 25.80
323.00 40.11
324.00 11.63
336.00 37.62
337.00 45.88
338.00 14.68
350.00 29.32
351.00 53.50
352.00 17.49
364.00 20.10
365.00 31.99
366.00 8.42
378.00 9.54
379.00 25.37
392.00 15.46
393.00 27.88
394.00 10.06
407.00 10.51
420.00 3.41
421.00 15.88
422.00 4.75
435.00 11.54
449.00 19.36
450.00 10.08
463.00 16.08
464.00 8.61
477.00 19.09
505.00 17.62
519.00 12.32
Name: Undecane, 3-ethyl-
Formula:
MW:
CAS#:
Comments: in-silico spectrum 33
Num peaks: 39
15.00 8.93
26.00 4.14
27.00 162.94
28.00 30.91
29.00 232.48
30.00 2.50
38.00 0.83
39.00 100.24
40.00 13.58
41.00 337.94
42.00 92.69
43.00 768.06
44.00 20.04
50.00 0.90
51.00 7.90
53.00 21.87
54.00 2.62
55.00 78.23
56.00 166.09
57.00 705.14
58.00 30.87
65.00 1.21
69.00 2.85
70.00 141.76
71.00 418.87
72.00 19.66
84.00 108.93
85.00 273.03
86.00 14.42
98.00 13.35
99.00 6.20
100.00 0.18
112.00 25.93
126.00 19.96
127.00 2.00
131.00 10.08
140.00 4.49
154.00 1.66
182.00 1.14
Name: Tridecane, 6-cyclohexyl-
Formula:
MW:
CAS#:
Comments: in-silico spectrum 34
Num peaks: 66
15.00 0.39
26.00 6.80
27.00 126.43
28.00 35.64
29.00 211.73
30.00 0.82
39.00 99.70
40.00 24.57
41.00 525.79
42.00 116.62
43.00 629.37
44.00 22.28
51.00 8.75
53.00 44.45
54.00 54.40
55.00 611.94
56.00 239.38
57.00 572.84
58.00 23.93
65.00 11.05
66.00 5.40
67.00 160.35
68.00 99.13
69.00 438.65
70.00 189.45
71.00 271.24
72.00 13.67
77.00 11.01
81.00 59.60
82.00 274.44
83.00 505.23
84.00 145.86
85.00 173.59
86.00 9.29
91.00 7.47
95.00 33.37
96.00 51.08
97.00 299.84
98.00 61.94
99.00 5.73
100.00 0.56
110.00 20.01
111.00 176.90
112.00 46.25
115.00 0.53
124.00 13.68
125.00 81.85
126.00 28.68
131.00 19.22
132.00 0.06
138.00 9.21
139.00 41.98
140.00 29.93
152.00 7.92
153.00 26.47
154.00 14.80
166.00 8.65
167.00 22.58
180.00 4.46
181.00 9.48
182.00 12.62
195.00 2.97
209.00 3.86
210.00 8.85
222.00 1.71
223.00 5.99
Name: Nonadecane, 3-methyl-
Formula:
MW:
CAS#:
Comments: in-silico spectrum 35
Num peaks: 43
26.00 2.23
27.00 102.34
28.00 21.22
29.00 163.06
39.00 70.16
40.00 10.03
41.00 303.83
42.00 81.73
43.00 725.96
44.00 19.53
51.00 2.38
53.00 17.52
54.00 5.57
55.00 119.04
56.00 160.03
57.00 756.47
58.00 34.38
65.00 0.96
69.00 41.46
70.00 128.98
71.00 480.23
72.00 23.68
84.00 90.48
85.00 319.36
86.00 18.39
98.00 22.99
99.00 55.29
100.00 4.80
112.00 28.20
113.00 33.09
114.00 1.43
126.00 22.17
127.00 28.55
128.00 2.15
140.00 10.93
141.00 18.90
142.00 2.11
154.00 8.46
155.00 14.73
156.00 1.07
182.00 5.36
183.00 7.41
210.00 0.52
Name: Nonane, 3,7-dimethyl-
Formula:
MW:
CAS#:
Comments: in-silico spectrum 36
Num peaks: 33
15.00 12.44
26.00 4.38
27.00 171.87
28.00 32.03
29.00 240.54
30.00 2.75
38.00 2.16
39.00 103.88
40.00 14.50
41.00 332.82
42.00 91.26
43.00 764.80
44.00 20.45
50.00 2.38
51.00 9.57
53.00 22.78
55.00 55.25
56.00 161.91
57.00 686.31
58.00 29.69
65.00 1.57
70.00 140.58
71.00 404.49
72.00 18.87
84.00 109.08
85.00 262.70
86.00 13.71
98.00 9.74
112.00 23.82
115.00 1.33
126.00 18.50
131.00 13.55
140.00 2.04
Name: Undecane, 2,7-dimethyl-
Formula:
MW:
CAS#:
Comments: in-silico spectrum 37
Num peaks: 37
15.00 8.97
26.00 3.55
27.00 153.68
28.00 28.54
29.00 218.17
30.00 1.62
38.00 0.52
39.00 93.83
40.00 12.99
41.00 312.31
42.00 85.15
43.00 748.11
44.00 20.28
50.00 1.26
51.00 7.99
53.00 20.53
55.00 47.04
56.00 154.48
57.00 696.24
58.00 30.49
65.00 1.07
70.00 133.05
71.00 421.55
72.00 20.02
84.00 100.56
85.00 275.55
86.00 14.88
98.00 10.08
99.00 10.91
100.00 0.67
112.00 22.70
126.00 17.93
127.00 5.29
128.00 0.01
131.00 8.93
140.00 2.08
154.00 0.72
Name: Octane, 2,3,3-trimethyl-
Formula:
MW:
CAS#:
Comments: in-silico spectrum 38
Num peaks: 38
15.00 13.04
26.00 4.31
27.00 163.17
28.00 30.47
29.00 226.84
30.00 1.92
38.00 2.29
39.00 98.63
40.00 15.29
41.00 314.28
42.00 84.88
43.00 740.21
44.00 21.03
50.00 3.23
51.00 10.55
53.00 23.71
55.00 41.28
56.00 153.83
57.00 672.07
58.00 28.83
65.00 2.60
70.00 134.97
71.00 401.83
72.00 19.22
84.00 102.82
85.00 261.59
86.00 13.96
98.00 8.05
99.00 1.94
112.00 21.48
115.00 3.18
126.00 17.24
127.00 0.56
128.00 0.22
129.00 0.67
131.00 14.88
132.00 0.91
140.00 1.04
Name: Decane, 5,6-dimethyl-
Formula:
MW:
CAS#:
Comments: in-silico spectrum 39
Num peaks: 36
15.00 11.11
26.00 4.23
27.00 166.72
28.00 31.22
29.00 234.93
30.00 2.45
38.00 1.57
39.00 101.39
40.00 14.19
41.00 331.42
42.00 90.61
43.00 764.53
44.00 20.49
50.00 1.91
51.00 9.02
53.00 22.44
55.00 60.04
56.00 162.00
57.00 694.63
58.00 30.18
65.00 1.53
70.00 139.98
71.00 412.37
72.00 19.37
84.00 107.73
85.00 268.37
86.00 14.15
98.00 10.66
99.00 2.11
112.00 24.09
115.00 0.65
126.00 18.77
127.00 0.16
131.00 12.15
140.00 2.64
154.00 0.32
Name: Cycloundecane, 1,1,2-trimethyl-
Formula:
MW:
CAS#:
Comments: in-silico spectrum 40
Num peaks: 66
15.00 13.27
26.00 8.32
27.00 154.15
28.00 39.01
29.00 232.18
30.00 2.46
38.00 2.67
39.00 109.73
40.00 28.25
41.00 485.22
42.00 108.33
43.00 580.12
44.00 22.65
50.00 5.15
51.00 15.12
52.00 2.05
53.00 48.17
54.00 41.51
55.00 508.94
56.00 216.12
57.00 469.49
58.00 18.07
65.00 13.33
66.00 3.28
67.00 129.48
68.00 77.98
69.00 362.89
70.00 179.09
71.00 200.48
72.00 10.23
77.00 17.06
81.00 39.04
82.00 215.76
83.00 401.09
84.00 141.38
85.00 123.71
86.00 5.61
91.00 5.95
95.00 15.51
96.00 28.15
97.00 224.55
98.00 47.60
110.00 11.32
111.00 133.94
112.00 38.23
115.00 10.92
124.00 10.49
125.00 57.39
126.00 24.18
128.00 0.04
129.00 6.50
131.00 34.13
132.00 5.87
138.00 6.29
139.00 30.39
140.00 22.76
145.00 0.41
152.00 6.10
153.00 17.87
154.00 8.67
166.00 5.18
167.00 16.69
180.00 1.70
181.00 2.27
182.00 6.89
210.00 1.19
Name: Heptadecane, 2-methyl-
Formula:
MW:
CAS#:
Comments: in-silico spectrum 41
Num peaks: 43
26.00 2.69
27.00 119.57
28.00 23.80
29.00 182.45
30.00 0.41
39.00 78.42
40.00 10.87
41.00 310.66
42.00 84.08
43.00 738.07
44.00 19.68
51.00 3.96
53.00 18.45
54.00 3.98
55.00 100.98
56.00 160.32
57.00 741.98
58.00 33.39
65.00 0.89
69.00 25.16
70.00 131.60
71.00 463.66
72.00 22.56
84.00 94.90
85.00 306.78
86.00 17.27
98.00 19.52
99.00 41.23
100.00 3.47
112.00 27.04
113.00 22.02
114.00 0.22
126.00 21.20
127.00 21.06
128.00 1.31
140.00 8.57
141.00 12.56
142.00 1.37
154.00 6.24
155.00 9.35
156.00 0.33
182.00 3.89
183.00 3.13
Name: Octatriacontane, 3,5-dimethyl-
Formula:
MW:
CAS#:
Comments: in-silico spectrum 42
Num peaks: 109
28.00 2.59
29.00 32.64
39.00 14.31
40.00 4.66
41.00 239.30
42.00 59.63
43.00 633.25
44.00 18.71
53.00 10.52
54.00 10.18
55.00 199.85
56.00 146.36
57.00 830.63
58.00 39.05
65.00 1.00
67.00 13.48
68.00 13.17
69.00 118.45
70.00 104.68
71.00 578.95
72.00 30.68
81.00 7.69
83.00 70.23
84.00 56.14
85.00 395.41
86.00 25.89
91.00 4.03
96.00 16.35
97.00 74.57
98.00 40.21
99.00 143.53
100.00 13.18
110.00 6.86
111.00 38.55
112.00 31.38
113.00 103.15
114.00 9.79
124.00 4.90
125.00 22.69
126.00 25.91
127.00 76.27
128.00 8.18
138.00 0.64
139.00 8.92
140.00 22.55
141.00 58.47
142.00 6.57
152.00 0.58
153.00 6.18
154.00 21.17
155.00 49.11
156.00 6.04
167.00 4.02
168.00 40.79
169.00 42.94
170.00 4.81
182.00 12.79
183.00 33.46
184.00 3.89
196.00 29.10
197.00 32.17
198.00 2.92
210.00 17.35
211.00 30.04
212.00 1.60
224.00 37.86
225.00 33.41
226.00 6.69
238.00 18.33
239.00 38.76
240.00 6.28
252.00 21.91
253.00 27.61
254.00 2.11
266.00 15.82
267.00 24.67
268.00 4.86
280.00 18.78
281.00 27.52
282.00 5.09
294.00 19.36
295.00 33.96
296.00 11.29
308.00 13.96
309.00 24.44
310.00 4.58
322.00 7.85
323.00 18.79
324.00 5.37
336.00 13.64
337.00 19.85
338.00 6.25
350.00 10.60
351.00 24.55
352.00 7.18
364.00 1.54
365.00 7.34
366.00 1.88
379.00 7.28
392.00 1.85
393.00 8.25
394.00 2.94
421.00 4.89
435.00 1.14
449.00 4.81
450.00 1.74
463.00 1.70
464.00 0.18
477.00 3.46
Name: Cyclopropane, 1-methyl-1-(1-methylethyl)-2-nonyl-
Formula:
MW:
CAS#:
Comments: in-silico spectrum 43
Num peaks: 68
15.00 3.56
26.00 6.63
27.00 117.07
28.00 31.87
29.00 190.59
30.00 0.12
39.00 90.73
40.00 25.24
41.00 464.24
42.00 102.37
43.00 590.96
44.00 22.96
50.00 1.61
51.00 10.78
53.00 43.96
54.00 40.89
55.00 513.39
56.00 212.84
57.00 545.51
58.00 22.18
65.00 12.39
66.00 3.37
67.00 130.42
68.00 78.35
69.00 366.63
70.00 171.56
71.00 272.18
72.00 14.05
77.00 15.81
79.00 2.58
81.00 51.71
82.00 212.58
83.00 405.30
84.00 129.08
85.00 175.20
86.00 9.58
91.00 9.94
95.00 28.87
96.00 38.61
97.00 239.13
98.00 51.94
99.00 9.82
100.00 0.92
110.00 17.89
111.00 140.94
112.00 38.89
115.00 5.17
124.00 14.01
125.00 64.10
126.00 25.66
128.00 2.29
129.00 3.76
131.00 22.20
132.00 3.67
138.00 8.55
139.00 32.61
140.00 25.40
152.00 8.14
153.00 21.54
154.00 12.92
165.00 0.37
166.00 5.26
167.00 17.41
180.00 3.26
181.00 3.87
182.00 9.30
210.00 6.13
223.00 0.43
Name: Hexadecane, 8-hexyl-8-pentyl-
Formula:
MW:
CAS#:
Comments: in-silico spectrum 44
Num peaks: 73
27.00 37.28
28.00 10.52
29.00 87.96
39.00 37.90
40.00 7.26
41.00 268.76
42.00 69.00
43.00 684.43
44.00 19.69
53.00 14.06
54.00 7.25
55.00 163.38
56.00 153.35
57.00 815.07
58.00 37.81
65.00 1.14
68.00 3.08
69.00 83.26
70.00 116.37
71.00 549.50
72.00 28.47
83.00 16.76
84.00 70.71
85.00 371.38
86.00 23.17
97.00 26.78
98.00 32.75
99.00 108.79
100.00 9.87
111.00 10.99
112.00 29.87
113.00 75.57
114.00 6.51
125.00 4.30
126.00 24.34
127.00 57.59
128.00 6.00
140.00 17.25
141.00 42.65
142.00 4.70
154.00 15.91
155.00 35.70
156.00 4.09
168.00 15.04
169.00 22.90
170.00 2.36
182.00 9.36
183.00 22.89
184.00 1.81
196.00 2.72
197.00 13.52
210.00 9.92
211.00 17.30
224.00 9.22
225.00 12.46
226.00 2.49
238.00 4.36
239.00 17.61
240.00 2.05
252.00 1.26
253.00 7.31
266.00 1.72
267.00 7.08
268.00 0.93
280.00 3.85
281.00 11.13
282.00 1.59
295.00 8.21
296.00 4.11
309.00 7.21
323.00 1.33
324.00 0.23
351.00 1.45
Name: 4,4-Dipropylheptane
Formula:
MW:
CAS#:
Comments: in-silico spectrum 45
Num peaks: 33
15.00 13.90
26.00 4.76
27.00 174.77
28.00 32.86
29.00 242.79
30.00 3.02
38.00 2.98
39.00 105.48
40.00 15.32
41.00 332.07
42.00 91.06
43.00 751.37
44.00 20.36
50.00 3.03
51.00 10.53
53.00 24.03
55.00 56.71
56.00 161.24
57.00 665.39
58.00 28.63
65.00 2.30
70.00 140.66
71.00 388.29
72.00 18.16
84.00 109.90
85.00 251.85
86.00 13.06
98.00 9.45
112.00 23.59
115.00 2.77
126.00 18.35
131.00 15.94
140.00 2.26
Name: 2-methyloctacosane
Formula:
MW:
CAS#:
Comments: in-silico spectrum 46
Num peaks: 61
26.00 0.50
27.00 54.92
28.00 13.41
29.00 108.78
39.00 46.55
40.00 7.29
41.00 277.50
42.00 72.93
43.00 695.29
44.00 19.20
53.00 13.99
54.00 7.56
55.00 150.11
56.00 154.99
57.00 798.54
58.00 37.06
65.00 0.60
68.00 0.50
69.00 70.56
70.00 119.05
71.00 529.77
72.00 26.95
83.00 0.65
84.00 76.03
85.00 356.66
86.00 21.71
97.00 11.36
98.00 30.30
99.00 93.87
100.00 8.45
111.00 2.36
112.00 29.77
113.00 63.67
114.00 5.06
126.00 23.75
127.00 49.36
128.00 4.54
140.00 15.63
141.00 35.94
142.00 3.99
154.00 13.87
155.00 29.77
156.00 3.31
168.00 5.25
169.00 15.22
170.00 1.56
182.00 8.54
183.00 18.74
184.00 1.03
197.00 6.36
210.00 7.60
211.00 12.35
225.00 4.87
226.00 1.23
239.00 9.06
240.00 0.18
267.00 0.59
281.00 5.03
282.00 0.33
296.00 1.50
309.00 0.65
Name: Cyclohexane, 1,1-dimethyl-2-propyl-
Formula:
MW:
CAS#:
Comments: in-silico spectrum 47
Num peaks: 60
15.00 20.30
26.00 8.95
27.00 173.90
28.00 40.73
29.00 247.46
30.00 3.82
38.00 6.01
39.00 115.82
40.00 28.29
41.00 445.94
42.00 102.85
43.00 568.77
44.00 21.56
50.00 7.80
51.00 17.63
52.00 3.60
53.00 46.55
54.00 30.85
55.00 400.78
56.00 197.17
57.00 427.06
58.00 15.86
65.00 12.85
66.00 0.91
67.00 92.30
68.00 55.18
69.00 278.28
70.00 168.64
71.00 175.64
72.00 8.74
77.00 16.40
81.00 9.13
82.00 149.92
83.00 286.80
84.00 136.05
85.00 105.76
86.00 4.03
91.00 0.69
96.00 4.02
97.00 146.44
98.00 35.33
111.00 88.50
112.00 32.71
115.00 15.33
124.00 3.91
125.00 32.55
126.00 21.11
129.00 9.35
131.00 40.05
132.00 7.74
138.00 1.29
139.00 18.52
140.00 16.77
145.00 3.06
152.00 1.84
153.00 7.59
154.00 4.36
166.00 2.20
167.00 10.75
182.00 3.26
Name: Tricosane
Formula:
MW:
CAS#:
Comments: in-silico spectrum 48
Num peaks: 44
26.00 1.71
27.00 92.04
28.00 19.54
29.00 153.14
39.00 65.42
40.00 8.67
41.00 304.02
42.00 82.00
43.00 730.88
44.00 19.25
51.00 0.50
53.00 15.88
54.00 7.55
55.00 132.42
56.00 162.14
57.00 779.36
58.00 35.84
65.00 0.24
69.00 51.56
70.00 128.55
71.00 499.37
72.00 24.71
84.00 88.90
85.00 333.12
86.00 19.35
98.00 25.82
99.00 65.38
100.00 5.78
112.00 29.75
113.00 40.85
114.00 2.37
126.00 23.29
127.00 33.86
128.00 2.36
140.00 12.69
141.00 23.26
142.00 2.68
154.00 10.18
155.00 18.60
156.00 1.82
182.00 6.90
183.00 10.60
210.00 2.79
211.00 2.42
Name: Dodecane, 2-methyl-6-propyl-
Formula:
MW:
CAS#:
Comments: in-silico spectrum 49
Num peaks: 44
15.00 0.83
26.00 2.91
27.00 125.50
28.00 24.69
29.00 188.59
30.00 0.53
39.00 81.20
40.00 11.56
41.00 311.98
42.00 84.27
43.00 741.71
44.00 20.02
51.00 4.90
53.00 19.30
54.00 2.69
55.00 92.76
56.00 159.84
57.00 736.70
58.00 32.92
65.00 1.16
69.00 18.24
70.00 132.41
71.00 458.38
72.00 22.26
84.00 96.06
85.00 302.74
86.00 16.97
98.00 17.95
99.00 36.52
100.00 3.02
112.00 26.26
113.00 18.39
126.00 20.66
127.00 18.64
128.00 1.26
131.00 1.34
140.00 7.47
141.00 10.44
142.00 1.09
154.00 5.32
155.00 7.58
156.00 0.02
182.00 3.06
183.00 1.57
Name: Triacontane, 11,20-didecyl-
Formula:
MW:
CAS#:
Comments: in-silico spectrum 50
Num peaks: 121
40.00 3.18
41.00 227.34
42.00 54.53
43.00 614.69
44.00 18.99
53.00 8.75
54.00 12.86
55.00 238.02
56.00 146.22
57.00 866.50
58.00 40.96
65.00 1.07
67.00 28.61
68.00 21.89
69.00 152.14
70.00 99.66
71.00 617.12
72.00 33.10
79.00 0.94
81.00 30.86
82.00 15.87
83.00 116.85
84.00 47.39
85.00 424.49
86.00 28.70
91.00 9.29
95.00 15.36
96.00 33.62
97.00 114.89
98.00 47.01
99.00 173.16
100.00 15.87
110.00 17.28
111.00 61.50
112.00 33.44
113.00 126.27
114.00 12.50
124.00 10.67
125.00 37.54
126.00 27.81
127.00 92.20
128.00 10.13
138.00 4.72
139.00 15.79
140.00 27.08
141.00 71.72
142.00 8.05
152.00 4.35
153.00 13.88
154.00 25.59
155.00 60.22
156.00 7.50
166.00 0.75
167.00 7.33
168.00 61.14
169.00 58.87
170.00 6.65
181.00 1.35
182.00 15.61
183.00 42.14
184.00 5.34
195.00 3.26
196.00 49.40
197.00 46.85
198.00 6.04
209.00 1.95
210.00 23.25
211.00 40.15
212.00 2.96
222.00 2.85
223.00 5.44
224.00 59.72
225.00 49.44
226.00 9.79
237.00 0.37
238.00 28.97
239.00 55.38
240.00 9.48
252.00 37.80
253.00 43.33
254.00 5.24
266.00 26.53
267.00 38.32
268.00 7.75
280.00 30.40
281.00 40.38
282.00 7.67
294.00 36.62
295.00 53.77
296.00 16.81
308.00 24.75
309.00 37.59
310.00 7.89
322.00 18.80
323.00 31.93
324.00 9.30
336.00 28.08
337.00 35.66
338.00 11.50
350.00 21.96
351.00 42.28
352.00 13.59
364.00 12.51
365.00 22.10
366.00 5.77
378.00 4.29
379.00 18.45
392.00 10.10
393.00 20.16
394.00 7.59
407.00 6.10
421.00 11.49
422.00 2.34
435.00 7.41
449.00 13.68
450.00 6.91
463.00 10.14
464.00 5.31
477.00 12.80
505.00 9.23
519.00 6.19
Name: Tetracosane, 12-decyl-12-nonyl-
Formula:
MW:
CAS#:
Comments: in-silico spectrum 51
Num peaks: 119
29.00 6.26
39.00 3.13
40.00 4.27
41.00 235.91
42.00 56.74
43.00 630.88
44.00 19.54
53.00 10.21
54.00 11.56
55.00 229.50
56.00 148.34
57.00 867.52
58.00 40.84
65.00 1.39
67.00 24.33
68.00 19.03
69.00 143.68
70.00 103.34
71.00 613.81
72.00 32.94
81.00 24.80
82.00 7.43
83.00 102.58
84.00 50.99
85.00 421.15
86.00 28.25
91.00 8.23
95.00 8.79
96.00 28.24
97.00 102.40
98.00 45.12
99.00 165.56
100.00 15.27
110.00 14.54
111.00 54.17
112.00 32.84
113.00 120.36
114.00 11.88
124.00 9.34
125.00 32.65
126.00 27.47
127.00 88.23
128.00 9.98
138.00 3.71
139.00 13.40
140.00 25.69
141.00 68.33
142.00 7.73
152.00 3.48
153.00 11.44
154.00 24.41
155.00 57.47
156.00 7.17
167.00 6.06
168.00 54.83
169.00 54.10
170.00 6.07
182.00 14.70
183.00 39.70
184.00 4.92
195.00 1.75
196.00 42.80
197.00 42.31
198.00 4.99
209.00 0.56
210.00 21.26
211.00 37.19
212.00 2.45
222.00 0.68
223.00 2.86
224.00 52.46
225.00 44.17
226.00 8.60
238.00 25.49
239.00 50.47
240.00 8.64
252.00 32.62
253.00 38.44
254.00 4.18
266.00 22.90
267.00 33.95
268.00 6.85
280.00 26.51
281.00 36.34
282.00 6.83
294.00 30.71
295.00 47.36
296.00 15.05
308.00 21.17
309.00 33.45
310.00 6.88
322.00 15.03
323.00 27.70
324.00 7.99
336.00 23.13
337.00 30.41
338.00 9.67
350.00 18.07
351.00 36.57
352.00 11.52
364.00 8.53
365.00 17.04
366.00 4.38
378.00 1.48
379.00 14.85
392.00 7.12
393.00 16.13
394.00 6.18
407.00 3.67
421.00 9.14
422.00 0.95
435.00 5.25
449.00 10.64
450.00 5.17
463.00 7.05
464.00 3.39
477.00 9.62
505.00 4.88
519.00 2.91
Name: Hexadecane, 4-methyl-
Formula:
MW:
CAS#:
Comments: in-silico spectrum 52
Num peaks: 43
15.00 0.23
26.00 3.06
27.00 126.55
28.00 25.20
29.00 191.05
30.00 0.84
39.00 82.34
40.00 11.50
41.00 319.18
42.00 86.58
43.00 743.27
44.00 19.69
51.00 4.55
53.00 19.42
54.00 4.83
55.00 106.21
56.00 163.42
57.00 736.72
58.00 33.01
65.00 1.13
69.00 28.86
70.00 134.65
71.00 455.81
72.00 22.06
84.00 98.31
85.00 300.94
86.00 16.77
98.00 19.57
99.00 35.87
100.00 2.96
112.00 27.57
113.00 17.56
126.00 21.47
127.00 17.96
128.00 0.95
131.00 1.13
140.00 8.71
141.00 10.34
142.00 1.16
154.00 5.93
155.00 7.06
182.00 3.87
183.00 1.64
Name: Heptane, 2,2,3,3,5,6,6-heptamethyl-
Formula:
MW:
CAS#:
Comments: in-silico spectrum 53
Num peaks: 46
15.00 10.17
26.00 2.96
27.00 114.39
28.00 21.85
29.00 158.58
38.00 1.06
39.00 71.77
40.00 16.62
41.00 238.37
42.00 61.04
43.00 612.58
44.00 21.35
50.00 3.83
51.00 10.99
52.00 0.74
53.00 23.96
55.00 19.16
56.00 123.04
57.00 598.80
58.00 25.43
65.00 5.16
70.00 109.94
71.00 379.16
72.00 19.71
77.00 7.79
84.00 76.80
85.00 250.36
86.00 14.87
98.00 6.75
99.00 26.14
100.00 2.03
112.00 15.48
113.00 13.68
115.00 6.72
126.00 14.46
127.00 14.85
128.00 4.29
129.00 7.25
131.00 14.70
132.00 5.41
140.00 1.54
141.00 7.03
142.00 0.25
145.00 8.64
154.00 1.78
155.00 5.36
Name: Undecane
Formula:
MW:
CAS#:
Comments: in-silico spectrum 54
Num peaks: 34
15.00 12.89
26.00 4.48
27.00 182.81
28.00 33.88
29.00 255.91
30.00 3.54
38.00 2.39
39.00 109.90
40.00 13.94
41.00 348.34
42.00 96.66
43.00 786.07
44.00 20.00
50.00 1.92
51.00 9.04
53.00 22.08
54.00 1.94
55.00 61.01
56.00 167.71
57.00 692.64
58.00 30.13
65.00 0.58
70.00 145.47
71.00 401.75
72.00 18.45
84.00 114.94
85.00 259.94
86.00 13.28
98.00 10.07
112.00 25.41
115.00 0.23
126.00 19.30
131.00 13.33
140.00 2.20
Name: 3-Methylheptacosane
Formula:
MW:
CAS#:
Comments: in-silico spectrum 55
Num peaks: 61
26.00 0.61
27.00 55.75
28.00 13.63
29.00 109.67
39.00 47.06
40.00 7.44
41.00 278.34
42.00 73.22
43.00 693.14
44.00 19.14
53.00 14.21
54.00 7.84
55.00 152.07
56.00 155.31
57.00 794.60
58.00 36.87
65.00 0.72
68.00 0.98
69.00 72.39
70.00 119.34
71.00 526.29
72.00 26.76
83.00 3.38
84.00 76.48
85.00 354.27
86.00 21.55
97.00 12.80
98.00 30.42
99.00 92.82
100.00 8.35
111.00 3.32
112.00 29.88
113.00 62.80
114.00 4.93
126.00 23.81
127.00 48.74
128.00 4.48
140.00 15.78
141.00 35.55
142.00 3.96
154.00 13.85
155.00 29.32
156.00 3.22
168.00 4.87
169.00 14.81
170.00 1.48
182.00 8.57
183.00 18.49
184.00 1.01
197.00 5.98
210.00 7.67
211.00 12.10
225.00 4.52
226.00 1.15
239.00 8.58
240.00 0.02
267.00 0.32
281.00 4.78
282.00 0.26
296.00 1.40
309.00 0.37
Name: Eicosane, 3-methyl-
Formula:
MW:
CAS#:
Comments: in-silico spectrum 56
Num peaks: 44
26.00 2.05
27.00 96.40
28.00 20.30
29.00 156.35
39.00 67.29
40.00 9.72
41.00 301.27
42.00 80.86
43.00 721.79
44.00 19.48
51.00 1.83
53.00 17.17
54.00 6.07
55.00 124.78
56.00 159.81
57.00 761.40
58.00 34.71
65.00 0.97
69.00 46.66
70.00 127.99
71.00 485.95
72.00 24.07
84.00 88.90
85.00 323.71
86.00 18.77
98.00 24.12
99.00 60.10
100.00 5.26
112.00 28.56
113.00 36.88
114.00 1.85
126.00 22.48
127.00 31.12
128.00 2.43
140.00 11.70
141.00 21.07
142.00 2.35
154.00 9.21
155.00 16.57
156.00 1.33
182.00 5.85
183.00 8.86
210.00 1.55
211.00 0.67
Name: 5-Methyldocosane
Formula:
MW:
CAS#:
Comments: in-silico spectrum 57
Num peaks: 45
26.00 1.72
27.00 86.23
28.00 18.69
29.00 144.73
39.00 62.29
40.00 9.20
41.00 296.19
42.00 79.13
43.00 714.37
44.00 19.40
51.00 0.90
53.00 16.54
54.00 6.70
55.00 133.17
56.00 159.01
57.00 769.48
58.00 35.25
65.00 0.97
69.00 54.43
70.00 126.06
71.00 495.68
72.00 24.74
84.00 85.95
85.00 331.10
86.00 19.44
98.00 25.87
99.00 68.28
100.00 6.04
112.00 29.02
113.00 43.34
114.00 2.60
126.00 22.90
127.00 35.51
128.00 2.95
140.00 12.86
141.00 24.72
142.00 2.75
154.00 10.43
155.00 19.74
156.00 1.78
169.00 1.43
182.00 6.59
183.00 11.30
210.00 3.20
211.00 3.57
Name: Hexadecane
Formula:
MW:
CAS#:
Comments: in-silico spectrum 58
Num peaks: 42
15.00 2.18
26.00 3.22
27.00 138.94
28.00 27.04
29.00 206.34
30.00 1.58
39.00 88.51
40.00 11.40
41.00 327.59
42.00 89.82
43.00 757.94
44.00 19.50
51.00 4.88
53.00 19.14
54.00 5.04
55.00 97.84
56.00 165.48
57.00 732.92
58.00 32.82
65.00 0.47
69.00 19.80
70.00 137.47
71.00 447.42
72.00 21.36
84.00 102.61
85.00 294.31
86.00 16.12
98.00 17.95
99.00 26.44
100.00 2.12
112.00 27.69
113.00 9.96
126.00 21.35
127.00 12.84
128.00 0.02
131.00 2.43
140.00 7.56
141.00 6.05
142.00 0.77
154.00 4.70
155.00 3.43
182.00 3.48
Name: Hexacosane, 13-dodecyl-
Formula:
MW:
CAS#:
Comments: in-silico spectrum 59
Num peaks: 97
27.00 10.04
28.00 6.27
29.00 58.22
39.00 25.01
40.00 5.33
41.00 260.84
42.00 66.34
43.00 664.34
44.00 18.92
53.00 11.74
54.00 11.21
55.00 198.94
56.00 153.84
57.00 835.15
58.00 39.23
65.00 0.81
67.00 9.98
68.00 11.75
69.00 114.01
70.00 112.23
71.00 571.95
72.00 29.83
83.00 62.09
84.00 64.48
85.00 388.87
86.00 24.82
91.00 0.78
96.00 9.08
97.00 63.63
98.00 38.98
99.00 130.05
100.00 11.92
110.00 1.37
111.00 32.32
112.00 32.17
113.00 92.01
114.00 8.37
124.00 1.79
125.00 17.82
126.00 26.09
127.00 68.65
128.00 6.95
139.00 6.64
140.00 21.44
141.00 52.28
142.00 5.89
153.00 2.71
154.00 19.67
155.00 43.67
156.00 5.34
167.00 3.12
168.00 30.52
169.00 35.06
170.00 3.97
182.00 12.23
183.00 29.53
184.00 3.23
196.00 18.34
197.00 24.55
198.00 1.07
210.00 15.26
211.00 25.09
212.00 0.99
224.00 26.69
225.00 25.31
226.00 5.42
238.00 13.09
239.00 29.87
240.00 4.36
252.00 13.60
253.00 19.37
254.00 0.56
266.00 10.62
267.00 17.66
268.00 3.35
280.00 13.38
281.00 21.33
282.00 3.89
294.00 10.74
295.00 23.79
296.00 8.62
308.00 8.37
309.00 17.48
310.00 2.87
322.00 1.73
323.00 11.41
324.00 3.34
336.00 5.54
337.00 11.19
338.00 3.33
350.00 4.38
351.00 14.71
352.00 3.57
379.00 0.94
393.00 1.52
394.00 0.32
421.00 1.66
Name: 13,17,21-Trimethyltritriacontane
Formula:
MW:
CAS#:
Comments: in-silico spectrum 60
Num peaks: 102
28.00 4.19
29.00 43.64
39.00 19.10
40.00 5.38
41.00 243.25
42.00 60.95
43.00 640.73
44.00 18.94
53.00 11.39
54.00 9.05
55.00 189.18
56.00 146.69
57.00 823.51
58.00 38.55
65.00 1.14
67.00 9.20
68.00 10.48
69.00 109.05
70.00 106.45
71.00 570.56
72.00 30.12
81.00 2.01
83.00 56.31
84.00 58.62
85.00 388.86
86.00 25.24
91.00 2.86
96.00 11.56
97.00 62.79
98.00 38.23
99.00 135.77
100.00 12.46
110.00 4.30
111.00 31.78
112.00 30.71
113.00 97.07
114.00 9.09
124.00 3.60
125.00 18.30
126.00 25.38
127.00 72.13
128.00 7.79
139.00 6.69
140.00 21.15
141.00 54.97
142.00 6.14
153.00 3.95
154.00 19.93
155.00 46.14
156.00 5.59
167.00 2.95
168.00 35.19
169.00 38.52
170.00 4.24
182.00 11.85
183.00 31.08
184.00 3.43
196.00 23.50
197.00 28.17
198.00 2.05
210.00 15.57
211.00 27.24
212.00 1.13
224.00 31.68
225.00 28.86
226.00 5.71
238.00 15.27
239.00 34.29
240.00 5.43
252.00 17.52
253.00 23.30
254.00 1.19
266.00 12.76
267.00 20.89
268.00 4.03
280.00 15.45
281.00 23.95
282.00 4.35
294.00 14.41
295.00 28.44
296.00 9.75
308.00 10.95
309.00 20.77
310.00 3.61
322.00 4.78
323.00 15.13
324.00 4.27
336.00 9.59
337.00 15.45
338.00 4.76
350.00 7.42
351.00 19.67
352.00 5.41
365.00 3.21
366.00 0.67
379.00 4.15
393.00 4.98
394.00 1.65
421.00 2.99
449.00 2.34
450.00 0.29
477.00 0.86
Name: Tetracosane
Formula:
MW:
CAS#:
Comments: in-silico spectrum 61
Num peaks: 46
26.00 1.56
27.00 87.61
28.00 18.79
29.00 147.66
39.00 63.07
40.00 8.41
41.00 299.39
42.00 80.65
43.00 724.42
44.00 19.15
51.00 0.18
53.00 15.49
54.00 7.47
55.00 132.63
56.00 160.60
57.00 778.92
58.00 35.89
65.00 0.23
69.00 52.46
70.00 126.88
71.00 501.24
72.00 24.88
84.00 87.07
85.00 334.75
86.00 19.55
98.00 26.16
99.00 68.35
100.00 6.06
112.00 29.64
113.00 43.29
114.00 2.65
126.00 23.24
127.00 35.51
128.00 2.56
140.00 12.95
141.00 24.60
142.00 2.82
154.00 10.51
155.00 19.81
156.00 1.99
169.00 1.36
170.00 0.02
182.00 7.04
183.00 11.49
210.00 3.31
211.00 3.54
Name: Hexadecane, 7,9-dimethyl-
Formula:
MW:
CAS#:
Comments: in-silico spectrum 62
Num peaks: 43
26.00 2.79
27.00 115.06
28.00 23.35
29.00 176.50
30.00 0.29
39.00 76.34
40.00 11.19
41.00 307.15
42.00 82.92
43.00 723.50
44.00 19.56
51.00 4.08
53.00 19.00
54.00 4.54
55.00 108.42
56.00 159.44
57.00 732.20
58.00 32.94
65.00 1.45
69.00 33.07
70.00 130.47
71.00 458.21
72.00 22.42
84.00 93.58
85.00 303.56
86.00 17.20
98.00 20.52
99.00 43.30
100.00 3.66
112.00 27.24
113.00 23.70
114.00 0.31
126.00 21.37
127.00 22.08
128.00 1.58
140.00 9.50
141.00 13.74
142.00 1.51
154.00 6.80
155.00 10.06
156.00 0.25
182.00 4.17
183.00 3.87
Name: Cis-1,3-di(n-hexyl)cyclohexane
Formula:
MW:
CAS#:
Comments: in-silico spectrum 63
Num peaks: 66
15.00 1.81
26.00 6.66
27.00 126.68
28.00 34.58
29.00 207.39
30.00 1.17
39.00 97.30
40.00 23.55
41.00 492.12
42.00 110.79
43.00 613.70
44.00 21.37
50.00 0.11
51.00 9.02
53.00 42.03
54.00 48.13
55.00 547.71
56.00 225.50
57.00 555.89
58.00 23.30
65.00 10.48
66.00 4.14
67.00 138.82
68.00 86.30
69.00 389.53
70.00 179.53
71.00 267.76
72.00 13.43
77.00 10.18
81.00 45.77
82.00 236.02
83.00 440.17
84.00 138.46
85.00 171.63
86.00 9.11
91.00 5.30
95.00 20.81
96.00 40.32
97.00 258.97
98.00 55.90
99.00 3.96
100.00 0.38
110.00 14.71
111.00 152.98
112.00 43.14
115.00 1.51
124.00 10.84
125.00 69.74
126.00 27.16
131.00 19.32
132.00 0.44
138.00 6.93
139.00 36.13
140.00 27.27
152.00 6.08
153.00 21.88
154.00 13.27
166.00 7.25
167.00 19.66
180.00 2.64
181.00 6.99
182.00 11.26
195.00 1.39
209.00 2.27
210.00 7.38
223.00 2.91
Name: Naphthalene, 1-(1-decylundecyl)decahydro-
Formula:
MW:
CAS#:
Comments: in-silico spectrum 64
Num peaks: 182
26.00 3.31
27.00 25.41
28.00 15.79
29.00 84.17
39.00 45.26
40.00 23.99
41.00 433.14
42.00 81.65
43.00 463.12
44.00 23.39
45.00 0.41
51.00 4.85
53.00 41.93
54.00 49.38
55.00 649.41
56.00 199.14
57.00 526.97
58.00 22.26
65.00 14.06
66.00 8.14
67.00 193.13
68.00 110.65
69.00 485.89
70.00 149.64
71.00 283.93
72.00 14.93
73.00 0.06
77.00 23.37
78.00 4.70
79.00 58.69
80.00 21.12
81.00 133.92
82.00 314.22
83.00 581.13
84.00 101.31
85.00 189.76
86.00 12.39
91.00 30.22
92.00 9.89
93.00 51.51
94.00 29.46
95.00 115.44
96.00 93.52
97.00 371.18
98.00 67.74
99.00 64.70
100.00 6.25
105.00 27.61
106.00 9.41
107.00 46.14
108.00 39.49
109.00 99.55
110.00 53.64
111.00 215.81
112.00 38.16
113.00 38.90
114.00 2.21
117.00 3.22
119.00 17.88
120.00 7.43
121.00 44.74
122.00 34.41
123.00 60.76
124.00 34.22
125.00 108.94
126.00 25.21
127.00 24.20
128.00 7.16
129.00 3.66
131.00 7.22
132.00 3.63
133.00 14.88
134.00 11.65
135.00 45.09
136.00 25.27
137.00 52.04
138.00 23.46
139.00 52.37
140.00 32.09
141.00 22.49
142.00 0.74
145.00 5.30
147.00 20.28
148.00 20.98
149.00 68.00
150.00 38.17
151.00 31.43
152.00 21.48
153.00 44.83
154.00 20.92
155.00 13.74
160.00 7.94
161.00 10.55
162.00 23.21
163.00 26.09
164.00 12.80
165.00 11.95
166.00 8.22
167.00 25.86
168.00 16.13
169.00 6.87
175.00 16.72
176.00 3.53
177.00 24.43
178.00 11.23
179.00 22.82
180.00 14.52
181.00 12.94
182.00 13.06
183.00 10.29
189.00 11.48
190.00 21.87
191.00 21.33
192.00 4.36
193.00 3.89
194.00 4.71
195.00 8.82
196.00 10.75
197.00 1.70
203.00 27.86
204.00 32.12
205.00 25.57
206.00 18.63
207.00 9.08
208.00 3.36
209.00 8.10
210.00 16.41
211.00 1.16
215.00 0.28
216.00 5.76
217.00 66.71
218.00 55.11
219.00 26.93
220.00 9.92
222.00 12.63
223.00 18.98
224.00 17.92
225.00 4.18
231.00 11.01
232.00 28.18
233.00 27.24
234.00 17.56
235.00 1.36
236.00 2.24
237.00 4.11
238.00 11.18
244.00 4.56
245.00 0.26
251.00 3.94
252.00 5.11
253.00 1.72
257.00 34.56
258.00 17.52
259.00 35.22
260.00 17.06
261.00 12.40
266.00 17.78
267.00 8.67
280.00 19.77
281.00 8.03
285.00 19.71
286.00 6.85
288.00 1.37
292.00 3.48
293.00 4.81
294.00 17.13
295.00 13.66
296.00 1.11
300.00 20.18
301.00 4.63
308.00 1.80
309.00 1.11
321.00 1.20
364.00 2.61
368.00 7.93
370.00 2.69
397.00 30.33
398.00 9.72
400.00 16.50
412.00 58.84
413.00 30.98
420.00 6.66
Name: Tridecane, 4,8-dimethyl-
Formula:
MW:
CAS#:
Comments: in-silico spectrum 65
Num peaks: 42
15.00 4.13
26.00 3.49
27.00 138.51
28.00 26.99
29.00 203.14
30.00 1.30
39.00 87.81
40.00 12.58
41.00 318.94
42.00 86.64
43.00 742.65
44.00 19.95
51.00 6.33
53.00 20.66
54.00 2.61
55.00 87.89
56.00 161.14
57.00 716.05
58.00 31.71
65.00 1.53
69.00 14.08
70.00 135.09
71.00 437.90
72.00 21.04
84.00 100.23
85.00 287.95
86.00 15.81
98.00 16.28
99.00 24.85
100.00 1.90
112.00 25.96
113.00 9.10
126.00 20.28
127.00 12.23
128.00 0.57
131.00 5.28
140.00 6.56
141.00 5.45
142.00 0.56
154.00 3.97
155.00 2.92
182.00 2.27
Name: 3-Methyltriacontane
Formula:
MW:
CAS#:
Comments: in-silico spectrum 66
Num peaks: 76
26.00 0.05
27.00 39.87
28.00 11.03
29.00 91.45
39.00 39.22
40.00 6.63
41.00 270.01
42.00 70.31
43.00 681.07
44.00 19.01
53.00 13.20
54.00 8.63
55.00 164.57
56.00 153.75
57.00 806.20
58.00 37.59
65.00 0.69
68.00 4.04
69.00 83.98
70.00 116.15
71.00 540.87
72.00 27.77
83.00 20.13
84.00 71.80
85.00 365.40
86.00 22.61
97.00 28.13
98.00 32.99
99.00 105.38
100.00 9.54
111.00 12.05
112.00 30.41
113.00 72.75
114.00 6.10
125.00 4.83
126.00 24.39
127.00 55.50
128.00 5.30
139.00 0.33
140.00 17.48
141.00 41.17
142.00 4.60
154.00 15.71
155.00 34.21
156.00 3.93
167.00 0.06
168.00 13.61
169.00 21.72
170.00 2.33
182.00 9.68
183.00 22.20
184.00 1.75
196.00 1.42
197.00 12.36
210.00 10.11
211.00 16.51
224.00 8.16
225.00 11.63
226.00 2.59
238.00 3.96
239.00 15.93
240.00 1.56
252.00 0.28
253.00 6.18
266.00 1.42
267.00 6.24
268.00 0.78
280.00 3.56
281.00 10.37
282.00 1.50
295.00 7.07
296.00 3.85
309.00 6.24
323.00 0.33
324.00 0.01
351.00 0.03
Name: Undecane, 5-methyl-
Formula:
MW:
CAS#:
Comments: in-silico spectrum 67
Num peaks: 36
15.00 10.67
26.00 4.05
27.00 166.17
28.00 30.94
29.00 234.47
30.00 2.45
38.00 1.38
39.00 100.87
40.00 13.56
41.00 329.41
42.00 90.43
43.00 764.46
44.00 20.16
50.00 1.59
51.00 8.49
53.00 21.49
54.00 0.05
55.00 56.55
56.00 160.99
57.00 694.98
58.00 30.32
65.00 1.03
70.00 138.93
71.00 412.90
72.00 19.32
84.00 107.07
85.00 268.71
86.00 14.14
98.00 10.42
99.00 2.21
112.00 24.04
126.00 18.66
127.00 0.23
131.00 11.12
140.00 2.41
154.00 0.30
Name: 9-methylheptadecane
Formula:
MW:
CAS#:
Comments: in-silico spectrum 68
Num peaks: 43
26.00 2.52
27.00 113.61
28.00 22.96
29.00 176.19
30.00 0.16
39.00 75.72
40.00 10.55
41.00 310.37
42.00 83.84
43.00 737.22
44.00 19.67
51.00 3.29
53.00 18.13
54.00 4.87
55.00 109.90
56.00 161.27
57.00 751.03
58.00 33.94
65.00 0.87
69.00 32.61
70.00 131.36
71.00 471.88
72.00 23.05
84.00 93.86
85.00 312.81
86.00 17.74
98.00 21.09
99.00 46.65
100.00 3.98
112.00 27.73
113.00 26.19
114.00 0.67
126.00 21.75
127.00 23.89
128.00 1.59
140.00 9.59
141.00 14.99
142.00 1.66
154.00 7.17
155.00 11.37
156.00 0.62
182.00 4.57
183.00 4.79
Name: 11-Methylnonacosane
Formula:
MW:
CAS#:
Comments: in-silico spectrum 69
Num peaks: 68
26.00 0.26
27.00 45.56
28.00 11.97
29.00 98.08
39.00 42.07
40.00 6.96
41.00 273.74
42.00 71.50
43.00 686.41
44.00 19.10
53.00 13.63
54.00 8.41
55.00 161.11
56.00 154.64
57.00 803.30
58.00 37.38
65.00 0.73
68.00 3.08
69.00 80.57
70.00 117.55
71.00 536.44
72.00 27.45
83.00 14.96
84.00 73.61
85.00 361.93
86.00 22.26
97.00 23.17
98.00 32.18
99.00 101.07
100.00 9.14
111.00 9.22
112.00 30.28
113.00 69.30
114.00 5.70
125.00 2.90
126.00 24.23
127.00 53.17
128.00 5.04
140.00 16.92
141.00 39.24
142.00 4.38
154.00 15.10
155.00 32.52
156.00 3.69
168.00 10.53
169.00 19.29
170.00 2.04
182.00 9.32
183.00 20.92
184.00 1.49
197.00 10.10
210.00 9.27
211.00 14.96
224.00 4.78
225.00 9.11
226.00 2.09
238.00 2.33
239.00 13.34
240.00 1.02
253.00 3.77
267.00 4.15
268.00 0.29
280.00 1.84
281.00 8.42
282.00 1.08
295.00 4.00
296.00 3.00
309.00 4.16
Name: 4,8,12-Trimethyldotriacontane
Formula:
MW:
CAS#:
Comments: in-silico spectrum 70
Num peaks: 97
27.00 10.49
28.00 6.21
29.00 56.44
39.00 24.79
40.00 6.22
41.00 252.64
42.00 63.76
43.00 646.73
44.00 19.03
53.00 12.61
54.00 9.46
55.00 190.08
56.00 149.44
57.00 812.75
58.00 37.92
65.00 1.47
67.00 8.82
68.00 10.22
69.00 108.94
70.00 109.78
71.00 557.46
72.00 29.25
83.00 55.68
84.00 62.70
85.00 379.06
86.00 24.35
91.00 1.86
96.00 8.35
97.00 59.03
98.00 37.37
99.00 126.76
100.00 11.61
110.00 2.15
111.00 29.90
112.00 30.80
113.00 89.83
114.00 8.18
124.00 2.49
125.00 16.44
126.00 25.26
127.00 67.06
128.00 7.24
139.00 6.04
140.00 20.65
141.00 51.08
142.00 5.73
153.00 2.83
154.00 19.01
155.00 42.57
156.00 5.03
167.00 2.85
168.00 29.53
169.00 33.83
170.00 3.66
182.00 11.40
183.00 28.54
184.00 3.00
196.00 17.72
197.00 23.74
198.00 0.97
210.00 14.45
211.00 24.28
212.00 0.69
224.00 25.51
225.00 24.19
226.00 4.84
238.00 12.40
239.00 29.21
240.00 4.37
252.00 13.04
253.00 18.74
254.00 0.28
266.00 9.97
267.00 16.98
268.00 3.13
280.00 12.58
281.00 20.41
282.00 3.58
294.00 9.91
295.00 22.85
296.00 8.24
308.00 7.91
309.00 16.86
310.00 2.64
322.00 1.68
323.00 11.17
324.00 3.17
336.00 5.32
337.00 10.76
338.00 3.20
350.00 4.13
351.00 14.37
352.00 3.52
379.00 0.87
393.00 1.37
394.00 0.21
421.00 1.21
Name: Decane, 5,6-bis(2,2-dimethylpropylidene)-, (E,Z)-
Formula:
MW:
CAS#:
Comments: in-silico spectrum 71
Num peaks: 63
15.00 4.68
26.00 5.59
27.00 113.48
28.00 27.27
29.00 174.02
30.00 0.79
39.00 81.05
40.00 20.35
41.00 357.48
42.00 85.68
43.00 582.91
44.00 20.39
50.00 1.77
51.00 9.89
53.00 34.06
54.00 19.85
55.00 294.29
56.00 172.59
57.00 553.06
58.00 23.08
65.00 9.37
67.00 52.64
68.00 33.22
69.00 195.47
70.00 141.89
71.00 309.33
72.00 15.73
77.00 10.44
81.00 0.39
82.00 72.58
83.00 173.83
84.00 105.26
85.00 202.09
86.00 11.24
91.00 1.25
96.00 1.38
97.00 96.95
98.00 33.33
99.00 16.95
100.00 1.46
111.00 57.14
112.00 30.32
113.00 3.13
115.00 5.16
124.00 3.36
125.00 22.25
126.00 22.37
127.00 4.24
128.00 2.60
129.00 3.80
131.00 17.27
132.00 3.10
139.00 11.94
140.00 17.61
141.00 4.10
145.00 1.05
152.00 0.68
153.00 4.81
154.00 9.02
166.00 0.37
167.00 7.03
182.00 5.67
210.00 2.51
Name: Undecane, 4,6-dimethyl-
Formula:
MW:
CAS#:
Comments: in-silico spectrum 72
Num peaks: 39
15.00 9.57
26.00 4.20
27.00 160.39
28.00 30.49
29.00 227.71
30.00 2.34
38.00 1.14
39.00 98.57
40.00 13.93
41.00 329.16
42.00 90.08
43.00 752.52
44.00 20.05
50.00 1.39
51.00 8.47
53.00 22.29
54.00 1.39
55.00 71.54
56.00 162.28
57.00 690.99
58.00 30.13
65.00 1.71
70.00 139.00
71.00 411.32
72.00 19.39
84.00 106.48
85.00 268.28
86.00 14.22
98.00 12.54
99.00 6.22
100.00 0.16
112.00 24.92
115.00 0.10
126.00 19.30
127.00 2.17
131.00 11.07
140.00 4.13
154.00 1.39
182.00 0.63
Name: 1-Cyclopentyleicosane
Formula:
MW:
CAS#:
Comments: in-silico spectrum 73
Num peaks: 68
26.00 5.99
27.00 111.30
28.00 32.88
29.00 195.42
30.00 0.04
39.00 92.15
40.00 22.78
41.00 518.09
42.00 114.98
43.00 633.71
44.00 22.04
51.00 6.55
53.00 42.08
54.00 55.15
55.00 615.98
56.00 239.13
57.00 603.73
58.00 25.77
65.00 10.29
66.00 5.51
67.00 161.07
68.00 100.37
69.00 441.76
70.00 186.82
71.00 299.74
72.00 15.23
77.00 9.41
81.00 63.50
82.00 275.35
83.00 510.10
84.00 141.58
85.00 194.19
86.00 10.89
91.00 8.30
95.00 37.39
96.00 55.79
97.00 308.21
98.00 64.34
99.00 20.49
100.00 1.97
110.00 22.19
111.00 181.33
112.00 47.25
113.00 1.97
124.00 14.55
125.00 85.50
126.00 29.64
128.00 0.45
131.00 13.37
138.00 9.82
139.00 43.54
140.00 31.41
141.00 3.03
152.00 8.44
153.00 28.13
154.00 16.64
166.00 9.17
167.00 23.35
180.00 4.98
181.00 10.81
182.00 14.12
195.00 4.24
209.00 5.16
210.00 11.46
222.00 3.82
223.00 8.38
251.00 0.77
420.00 0.25
Name: 13-Methylnonacosane
Formula:
MW:
CAS#:
Comments: in-silico spectrum 74
Num peaks: 68
26.00 0.25
27.00 45.46
28.00 11.95
29.00 97.92
39.00 42.00
40.00 6.95
41.00 273.39
42.00 71.41
43.00 685.97
44.00 19.08
53.00 13.61
54.00 8.38
55.00 160.75
56.00 154.49
57.00 802.91
58.00 37.37
65.00 0.72
68.00 3.04
69.00 80.32
70.00 117.42
71.00 536.25
72.00 27.45
83.00 14.68
84.00 73.52
85.00 361.82
86.00 22.26
97.00 23.02
98.00 32.14
99.00 101.07
100.00 9.14
111.00 9.14
112.00 30.25
113.00 69.32
114.00 5.70
125.00 2.87
126.00 24.21
127.00 53.17
128.00 5.03
140.00 16.90
141.00 39.24
142.00 4.38
154.00 15.09
155.00 32.52
156.00 3.68
168.00 10.56
169.00 19.31
170.00 2.04
182.00 9.31
183.00 20.92
184.00 1.49
197.00 10.12
210.00 9.27
211.00 14.97
224.00 4.82
225.00 9.14
226.00 2.09
238.00 2.34
239.00 13.37
240.00 1.03
253.00 3.79
267.00 4.18
268.00 0.30
280.00 1.84
281.00 8.43
282.00 1.08
295.00 4.03
296.00 3.00
309.00 4.19
Name: Hexacosane, 9-octyl-
Formula:
MW:
CAS#:
Comments: in-silico spectrum 75
Num peaks: 84
27.00 28.39
28.00 9.35
29.00 79.65
39.00 34.18
40.00 6.26
41.00 272.63
42.00 70.27
43.00 681.64
44.00 19.15
53.00 12.96
54.00 10.58
55.00 187.30
56.00 156.73
57.00 825.94
58.00 38.63
65.00 0.83
67.00 4.34
68.00 8.59
69.00 102.53
70.00 116.66
71.00 557.78
72.00 28.81
83.00 45.00
84.00 70.34
85.00 377.73
86.00 23.65
96.00 1.40
97.00 47.38
98.00 36.42
99.00 116.13
100.00 10.60
111.00 23.11
112.00 31.84
113.00 80.94
114.00 7.06
125.00 11.50
126.00 25.58
127.00 61.10
128.00 6.02
139.00 3.59
140.00 19.64
141.00 46.02
142.00 5.20
154.00 17.72
155.00 38.22
156.00 4.56
167.00 1.74
168.00 20.63
169.00 27.28
170.00 3.05
182.00 11.11
183.00 25.42
184.00 2.43
196.00 8.26
197.00 17.28
210.00 12.60
211.00 20.12
212.00 0.22
224.00 15.79
225.00 17.26
226.00 3.83
238.00 7.83
239.00 21.52
240.00 2.64
252.00 5.72
253.00 11.60
266.00 5.36
267.00 10.93
268.00 1.83
280.00 7.84
281.00 15.05
282.00 2.56
294.00 2.24
295.00 13.93
296.00 5.88
308.00 3.01
309.00 10.82
310.00 1.10
323.00 4.71
324.00 1.38
337.00 3.15
338.00 0.58
351.00 5.73
352.00 0.31
Name: Dodecane, 3-methyl-
Formula:
MW:
CAS#:
Comments: in-silico spectrum 76
Num peaks: 38
15.00 7.93
26.00 3.77
27.00 155.68
28.00 29.37
29.00 222.91
30.00 2.02
38.00 0.28
39.00 95.89
40.00 12.95
41.00 326.02
42.00 89.25
43.00 759.44
44.00 20.05
50.00 0.65
51.00 7.44
53.00 20.82
54.00 1.10
55.00 67.91
56.00 161.29
57.00 706.78
58.00 31.06
65.00 0.99
70.00 137.57
71.00 425.03
72.00 20.08
84.00 104.54
85.00 277.73
86.00 14.86
98.00 12.66
99.00 11.20
100.00 0.67
112.00 24.86
126.00 19.32
127.00 5.00
131.00 8.40
140.00 3.91
154.00 1.73
182.00 0.85
Name: Heptane, 2,3-dimethyl-
Formula:
MW:
CAS#:
Comments: in-silico spectrum 77
Num peaks: 35
15.00 23.38
26.00 5.58
27.00 214.78
28.00 38.49
29.00 288.41
30.00 4.46
38.00 6.44
39.00 124.47
40.00 17.09
41.00 350.30
42.00 96.86
43.00 793.91
44.00 21.21
50.00 6.14
51.00 13.86
52.00 1.30
53.00 25.66
55.00 11.83
56.00 162.32
57.00 648.70
58.00 27.08
65.00 1.70
70.00 147.53
71.00 362.34
72.00 16.21
84.00 120.09
85.00 230.69
86.00 11.07
98.00 0.92
112.00 20.72
115.00 6.71
126.00 15.99
129.00 0.90
131.00 24.46
132.00 1.32
Name: 3,3-Diethyltridecane
Formula:
MW:
CAS#:
Comments: in-silico spectrum 78
Num peaks: 42
26.00 2.11
27.00 103.38
28.00 21.00
29.00 162.43
39.00 69.95
40.00 10.65
41.00 296.87
42.00 78.87
43.00 728.81
44.00 20.38
51.00 3.36
53.00 18.17
54.00 2.07
55.00 100.20
56.00 155.91
57.00 758.68
58.00 34.19
65.00 1.28
69.00 26.28
70.00 127.34
71.00 484.75
72.00 24.15
84.00 88.39
85.00 322.29
86.00 18.76
98.00 20.36
99.00 55.12
100.00 4.80
112.00 26.22
113.00 33.39
114.00 1.67
126.00 20.99
127.00 28.92
128.00 2.79
140.00 8.92
141.00 18.56
142.00 1.92
154.00 7.49
155.00 15.06
156.00 1.13
182.00 3.94
183.00 6.80
Name: Docosane, 7-hexyl-
Formula:
MW:
CAS#:
Comments: in-silico spectrum 79
Num peaks: 58
26.00 0.96
27.00 61.39
28.00 14.87
29.00 117.76
39.00 50.66
40.00 8.01
41.00 291.71
42.00 76.84
43.00 706.40
44.00 19.39
53.00 15.26
54.00 9.43
55.00 165.45
56.00 160.95
57.00 801.43
58.00 37.11
65.00 0.97
68.00 3.12
69.00 81.86
70.00 123.94
71.00 526.65
72.00 26.68
83.00 14.87
84.00 80.62
85.00 354.00
86.00 21.36
97.00 18.51
98.00 31.56
99.00 90.02
100.00 8.12
111.00 6.84
112.00 31.10
113.00 60.20
114.00 4.53
125.00 0.44
126.00 24.63
127.00 46.99
128.00 4.28
140.00 16.49
141.00 34.43
142.00 3.89
154.00 14.03
155.00 28.00
156.00 3.03
168.00 2.61
169.00 12.97
170.00 1.29
182.00 9.00
183.00 17.76
184.00 0.89
197.00 4.01
210.00 7.81
211.00 11.01
225.00 2.56
226.00 0.83
239.00 6.18
281.00 3.53
296.00 0.84
Name: Pentacosane
Formula:
MW:
CAS#:
Comments: in-silico spectrum 80
Num peaks: 45
26.00 1.30
27.00 80.32
28.00 17.62
29.00 139.63
39.00 59.56
40.00 8.02
41.00 297.06
42.00 79.72
43.00 722.54
44.00 19.18
53.00 15.03
54.00 7.98
55.00 139.55
56.00 160.69
57.00 788.91
58.00 36.48
65.00 0.19
69.00 58.41
70.00 125.95
71.00 511.10
72.00 25.50
84.00 85.22
85.00 341.99
86.00 20.14
98.00 27.56
99.00 74.79
100.00 6.67
112.00 30.10
113.00 48.34
114.00 3.24
126.00 23.65
127.00 38.97
128.00 2.96
140.00 13.81
141.00 27.43
142.00 3.13
154.00 11.46
155.00 22.28
156.00 2.36
169.00 4.72
170.00 0.44
182.00 7.65
183.00 13.39
210.00 4.51
211.00 5.72
Name: Hexadecane, 2,6,10-trimethyl-
Formula:
MW:
CAS#:
Comments: in-silico spectrum 81
Num peaks: 42
26.00 2.26
27.00 101.45
28.00 20.98
29.00 160.08
39.00 69.27
40.00 10.62
41.00 295.91
42.00 79.11
43.00 715.16
44.00 19.79
51.00 3.21
53.00 18.18
54.00 3.62
55.00 108.97
56.00 156.14
57.00 745.27
58.00 33.65
65.00 1.49
69.00 34.81
70.00 126.71
71.00 474.58
72.00 23.54
84.00 88.33
85.00 315.69
86.00 18.31
98.00 21.54
99.00 54.61
100.00 4.73
112.00 26.90
113.00 32.89
114.00 1.47
126.00 21.34
127.00 28.39
128.00 2.53
140.00 10.05
141.00 18.62
142.00 2.00
154.00 7.94
155.00 14.60
156.00 0.91
182.00 4.52
183.00 7.01
Name: Cyclooctacosane
Formula:
MW:
CAS#:
Comments: in-silico spectrum 82
Num peaks: 72
26.00 5.34
27.00 102.52
28.00 31.70
29.00 188.85
39.00 88.65
40.00 20.85
41.00 524.03
42.00 117.47
43.00 651.73
44.00 21.61
51.00 4.15
53.00 39.81
54.00 58.45
55.00 633.12
56.00 245.51
57.00 641.18
58.00 28.20
65.00 9.01
66.00 5.85
67.00 164.40
68.00 104.42
69.00 453.53
70.00 189.13
71.00 327.52
72.00 16.69
77.00 6.19
81.00 64.50
82.00 283.66
83.00 526.46
84.00 142.53
85.00 214.02
86.00 12.31
91.00 7.12
95.00 37.62
96.00 60.42
97.00 322.64
98.00 68.53
99.00 32.07
100.00 3.05
110.00 22.94
111.00 189.58
112.00 50.26
113.00 10.61
124.00 14.26
125.00 90.71
126.00 31.49
127.00 6.04
128.00 0.09
131.00 7.14
138.00 9.89
139.00 46.29
140.00 33.85
141.00 7.90
152.00 8.15
153.00 29.68
154.00 18.52
166.00 10.36
167.00 24.79
180.00 5.13
181.00 13.05
182.00 16.24
183.00 1.28
195.00 5.72
209.00 7.00
210.00 14.42
222.00 6.17
223.00 11.04
237.00 1.42
251.00 2.57
266.00 1.10
280.00 3.18
420.00 2.98
Name: Hexane, 2,3,5-trimethyl-
Formula:
MW:
CAS#:
Comments: in-silico spectrum 83
Num peaks: 33
15.00 30.48
26.00 6.12
27.00 233.71
28.00 40.90
29.00 305.38
30.00 5.33
38.00 9.43
39.00 132.09
40.00 18.20
41.00 336.03
42.00 93.89
43.00 769.95
44.00 20.84
50.00 8.79
51.00 16.70
52.00 3.40
53.00 26.34
56.00 151.54
57.00 586.78
58.00 23.88
65.00 1.94
70.00 142.96
71.00 314.77
72.00 13.58
84.00 120.04
85.00 197.24
86.00 8.78
112.00 16.61
115.00 10.64
126.00 12.92
129.00 3.38
131.00 31.22
132.00 3.31
Name: 6,6-Diethylhexadecane
Formula:
MW:
CAS#:
Comments: in-silico spectrum 84
Num peaks: 45
26.00 1.50
27.00 80.75
28.00 17.62
29.00 137.36
39.00 59.24
40.00 9.59
41.00 290.10
42.00 76.32
43.00 715.21
44.00 20.16
51.00 1.14
53.00 17.03
54.00 4.52
55.00 127.26
56.00 156.64
57.00 780.36
58.00 35.58
65.00 1.36
69.00 50.19
70.00 124.66
71.00 507.94
72.00 25.70
84.00 83.12
85.00 339.79
86.00 20.28
98.00 25.31
99.00 73.98
100.00 6.57
112.00 28.02
113.00 48.12
114.00 3.29
126.00 22.47
127.00 38.88
128.00 3.86
140.00 12.31
141.00 27.10
142.00 2.93
154.00 10.64
155.00 22.19
156.00 2.10
169.00 3.74
182.00 6.05
183.00 12.52
210.00 2.88
211.00 4.99
Name: Pentatriacontane, 13-docosenylidene-
Formula:
MW:
CAS#:
Comments: in-silico spectrum 85
Num peaks: 121
26.00 0.69
27.00 1.01
28.00 8.42
29.00 55.28
39.00 27.34
40.00 11.52
41.00 342.47
42.00 76.35
43.00 593.05
44.00 20.50
53.00 23.19
54.00 32.55
55.00 426.23
56.00 182.04
57.00 749.16
58.00 34.39
65.00 6.42
66.00 1.82
67.00 97.93
68.00 61.35
69.00 300.30
70.00 131.04
71.00 484.35
72.00 25.14
77.00 5.26
79.00 11.43
80.00 0.03
81.00 61.64
82.00 147.32
83.00 320.89
84.00 80.54
85.00 329.45
86.00 21.52
91.00 14.52
95.00 42.30
96.00 54.30
97.00 224.63
98.00 57.69
99.00 119.73
100.00 11.19
109.00 18.00
110.00 26.89
111.00 128.30
112.00 38.51
113.00 82.25
114.00 7.05
124.00 17.46
125.00 68.15
126.00 28.73
127.00 58.47
128.00 7.45
138.00 10.21
139.00 32.17
140.00 30.95
141.00 47.84
142.00 4.70
152.00 9.49
153.00 25.62
154.00 23.66
155.00 37.18
156.00 3.35
166.00 5.07
167.00 16.41
168.00 35.56
169.00 32.39
170.00 2.87
180.00 4.16
181.00 7.31
182.00 16.23
183.00 27.08
184.00 2.08
195.00 5.42
196.00 25.32
197.00 22.56
208.00 0.64
209.00 5.68
210.00 21.07
211.00 21.33
222.00 7.49
223.00 11.54
224.00 35.32
225.00 26.03
226.00 4.64
237.00 2.19
238.00 18.65
239.00 25.51
240.00 0.89
252.00 18.59
253.00 20.47
254.00 1.16
266.00 19.80
267.00 20.97
268.00 2.78
280.00 23.08
281.00 23.54
282.00 2.25
294.00 23.21
295.00 30.11
296.00 8.87
308.00 12.20
309.00 18.09
310.00 2.22
322.00 4.87
323.00 11.09
324.00 1.98
336.00 9.97
337.00 13.13
338.00 3.56
350.00 4.93
351.00 14.04
352.00 0.75
364.00 4.49
365.00 6.18
379.00 3.00
393.00 3.08
407.00 0.49
420.00 2.43
421.00 4.00
449.00 0.60
463.00 0.69
477.00 0.80
Name: Pentatriacontane
Formula:
MW:
CAS#:
Comments: in-silico spectrum 86
Num peaks: 83
27.00 24.74
28.00 8.47
29.00 75.36
39.00 31.82
40.00 5.04
41.00 264.25
42.00 68.68
43.00 680.26
44.00 18.69
53.00 11.19
54.00 9.99
55.00 175.27
56.00 153.65
57.00 830.35
58.00 39.12
67.00 0.07
68.00 6.79
69.00 92.65
70.00 113.63
71.00 563.79
72.00 29.07
83.00 32.85
84.00 67.90
85.00 382.17
86.00 23.92
96.00 0.46
97.00 41.01
98.00 35.81
99.00 119.04
100.00 10.84
111.00 19.06
112.00 31.52
113.00 83.43
114.00 7.39
125.00 9.81
126.00 25.30
127.00 62.90
128.00 5.81
139.00 2.62
140.00 19.21
141.00 47.05
142.00 5.28
154.00 17.63
155.00 39.50
156.00 4.85
167.00 0.91
168.00 22.11
169.00 28.90
170.00 3.35
182.00 11.17
183.00 26.35
184.00 2.59
196.00 9.86
197.00 18.86
210.00 12.64
211.00 21.17
212.00 0.60
224.00 17.50
225.00 18.85
226.00 4.28
238.00 8.61
239.00 23.17
240.00 3.02
252.00 6.85
253.00 12.80
266.00 5.93
267.00 12.10
268.00 2.23
280.00 8.36
281.00 15.94
282.00 2.80
294.00 3.16
295.00 15.52
296.00 6.26
308.00 3.90
309.00 12.04
310.00 1.41
323.00 5.84
324.00 1.73
337.00 4.67
338.00 1.11
351.00 7.39
352.00 0.95
Name: Heptane, 3,4-dimethyl-
Formula:
MW:
CAS#:
Comments: in-silico spectrum 87
Num peaks: 34
15.00 25.38
26.00 5.92
27.00 222.15
28.00 39.81
29.00 296.31
30.00 5.00
38.00 7.42
39.00 128.17
40.00 17.64
41.00 352.45
42.00 97.89
43.00 788.25
44.00 20.93
50.00 6.82
51.00 14.72
52.00 1.79
53.00 26.34
55.00 8.72
56.00 162.18
57.00 629.26
58.00 26.08
65.00 1.92
70.00 148.31
71.00 345.09
72.00 15.23
84.00 122.22
85.00 218.59
86.00 10.20
112.00 20.50
115.00 7.90
126.00 15.71
129.00 1.39
131.00 26.91
132.00 1.73
Name: Pentane, 2,2,3,4-tetramethyl-
Formula:
MW:
CAS#:
Comments: in-silico spectrum 88
Num peaks: 35
15.00 34.77
26.00 6.96
27.00 240.25
28.00 42.43
29.00 308.79
30.00 5.84
38.00 11.62
39.00 135.08
40.00 20.42
41.00 327.07
42.00 91.19
43.00 733.20
44.00 20.78
50.00 11.01
51.00 19.47
52.00 5.20
53.00 29.30
56.00 146.32
57.00 532.39
58.00 20.97
65.00 3.73
70.00 140.79
71.00 274.99
72.00 11.76
77.00 0.75
84.00 119.84
85.00 170.28
86.00 7.14
112.00 14.85
115.00 15.02
126.00 11.79
129.00 6.89
131.00 37.91
132.00 5.87
145.00 1.27
Name: Nonane, 5-(2-methylpropyl)-
Formula:
MW:
CAS#:
Comments: in-silico spectrum 89
Num peaks: 39
15.00 8.52
26.00 4.03
27.00 158.69
28.00 30.19
29.00 226.90
30.00 2.19
38.00 0.61
39.00 98.00
40.00 13.75
41.00 333.28
42.00 90.99
43.00 762.67
44.00 20.30
50.00 0.93
51.00 8.00
53.00 22.13
54.00 1.92
55.00 77.35
56.00 164.64
57.00 706.02
58.00 30.89
65.00 1.54
69.00 3.09
70.00 140.38
71.00 422.04
72.00 19.93
84.00 107.08
85.00 275.66
86.00 14.70
98.00 13.48
99.00 9.44
100.00 0.47
112.00 25.55
126.00 19.84
127.00 3.86
131.00 9.78
140.00 4.61
154.00 1.86
182.00 1.04
Name: Octadecane, 2,6-dimethyl-
Formula:
MW:
CAS#:
Comments: in-silico spectrum 90
Num peaks: 43
26.00 2.11
27.00 98.85
28.00 20.59
29.00 158.29
39.00 68.25
40.00 10.13
41.00 299.23
42.00 80.10
43.00 721.49
44.00 19.72
51.00 2.46
53.00 17.63
54.00 4.74
55.00 116.63
56.00 158.28
57.00 757.17
58.00 34.34
65.00 1.18
69.00 40.22
70.00 127.60
71.00 483.10
72.00 23.95
84.00 88.65
85.00 321.60
86.00 18.66
98.00 22.84
99.00 57.92
100.00 5.04
112.00 27.74
113.00 35.32
114.00 1.73
126.00 21.92
127.00 30.09
128.00 2.52
140.00 10.81
141.00 20.05
142.00 2.20
154.00 8.59
155.00 15.81
156.00 1.18
182.00 5.18
183.00 8.05
210.00 0.60
Name: Octane, 2-methyl-
Formula:
MW:
CAS#:
Comments: in-silico spectrum 91
Num peaks: 34
15.00 20.41
26.00 5.32
27.00 205.96
28.00 37.32
29.00 279.38
30.00 4.40
38.00 5.44
39.00 120.54
40.00 16.08
41.00 349.27
42.00 97.02
43.00 784.02
44.00 20.40
50.00 4.88
51.00 12.41
52.00 0.35
53.00 24.53
55.00 28.78
56.00 163.73
57.00 651.28
58.00 27.54
65.00 1.38
70.00 146.54
71.00 365.62
72.00 16.38
84.00 118.87
85.00 233.73
86.00 11.33
98.00 3.88
112.00 22.37
115.00 4.86
126.00 17.04
131.00 21.49
132.00 0.18
