Name: Undecane, 5-cyclohexyl-
Formula:
MW:
CAS#:
Comments: in-silico spectrum 1
Num peaks: 22
27.00 53.83
29.00 145.94
39.00 12.71
41.00 407.12
42.00 44.08
43.00 408.26
54.00 28.08
55.00 718.01
56.00 106.94
57.00 534.52
67.00 259.93
69.00 291.27
70.00 46.61
71.00 248.68
82.00 769.46
83.00 792.59
84.00 71.95
85.00 146.47
97.00 215.62
99.00 9.22
111.00 170.35
125.00 24.86
Name: Cyclohexane, 1,1'-tetradecylidenebis-
Formula:
MW:
CAS#:
Comments: in-silico spectrum 2
Num peaks: 22
27.00 1.26
29.00 72.47
41.00 389.17
42.00 20.26
43.00 393.94
54.00 11.92
55.00 703.64
56.00 46.25
57.00 466.87
67.00 312.00
69.00 304.05
71.00 214.26
82.00 750.71
83.00 770.96
84.00 43.49
85.00 138.37
95.00 78.38
96.00 14.15
97.00 219.43
99.00 8.31
111.00 172.38
125.00 22.41
Name: Decane, 2,3,7-trimethyl-
Formula:
MW:
CAS#:
Comments: in-silico spectrum 3
Num peaks: 13
27.00 106.63
29.00 193.50
39.00 55.92
41.00 268.60
42.00 52.98
43.00 663.73
55.00 77.13
56.00 126.71
57.00 662.40
70.00 102.55
71.00 414.02
84.00 56.91
85.00 253.67
Name: Cyclopropane, 1-(1,2-dimethylpropyl)-1-methyl-2-nonyl-
Formula:
MW:
CAS#:
Comments: in-silico spectrum 4
Num peaks: 24
27.00 154.47
29.00 216.37
39.00 103.89
41.00 559.34
42.00 109.10
43.00 405.81
55.00 710.42
56.00 283.48
57.00 342.74
67.00 217.02
68.00 112.98
69.00 667.82
70.00 224.58
71.00 116.27
82.00 251.48
83.00 578.81
84.00 162.72
85.00 68.29
95.00 72.39
96.00 28.84
97.00 377.23
98.00 15.21
111.00 269.62
125.00 56.07
Name: Z-14-Nonacosane
Formula:
MW:
CAS#:
Comments: in-silico spectrum 5
Num peaks: 25
27.00 11.78
29.00 154.15
39.00 7.76
41.00 357.52
42.00 77.38
43.00 514.69
55.00 408.76
56.00 209.98
57.00 652.44
67.00 61.97
68.00 30.16
69.00 290.48
70.00 99.84
71.00 332.51
82.00 174.67
83.00 362.89
84.00 86.67
85.00 219.64
96.00 13.34
97.00 252.18
98.00 9.04
99.00 54.11
111.00 163.27
113.00 27.33
125.00 135.82
Name: 11-Methylpentacosane
Formula:
MW:
CAS#:
Comments: in-silico spectrum 6
Num peaks: 17
29.00 51.91
41.00 194.22
42.00 42.06
43.00 438.52
55.00 172.67
56.00 134.17
57.00 697.96
69.00 86.39
70.00 75.85
71.00 473.88
83.00 77.17
84.00 25.95
85.00 288.19
97.00 27.10
99.00 90.60
113.00 76.01
127.00 41.36
Name: Cyclopentane, (4-octyldodecyl)-
Formula:
MW:
CAS#:
Comments: in-silico spectrum 7
Num peaks: 24
27.00 18.77
29.00 117.35
39.00 33.55
41.00 524.76
42.00 85.32
43.00 538.44
55.00 661.13
56.00 179.87
57.00 507.81
67.00 265.82
68.00 234.97
69.00 528.79
70.00 112.36
71.00 218.16
82.00 381.26
83.00 624.36
84.00 96.33
85.00 136.41
95.00 131.74
96.00 93.93
97.00 386.42
99.00 13.08
111.00 240.68
125.00 79.42
Name: 3-Ethyl-3-methylheptadecane
Formula:
MW:
CAS#:
Comments: in-silico spectrum 8
Num peaks: 16
29.00 56.60
41.00 191.84
42.00 34.26
43.00 438.86
55.00 146.57
56.00 116.26
57.00 697.32
69.00 54.46
70.00 90.67
71.00 507.57
83.00 14.81
84.00 19.48
85.00 291.03
99.00 81.78
113.00 72.29
127.00 43.58
Name: 5-Ethyl-5-methylheptadecane
Formula:
MW:
CAS#:
Comments: in-silico spectrum 9
Num peaks: 16
29.00 53.64
41.00 193.90
42.00 35.40
43.00 442.80
55.00 152.84
56.00 111.98
57.00 692.80
69.00 56.90
70.00 87.13
71.00 502.01
83.00 25.20
84.00 20.27
85.00 291.94
99.00 83.14
113.00 73.49
127.00 45.92
Name: Tetracosane, 11-decyl-
Formula:
MW:
CAS#:
Comments: in-silico spectrum 10
Num peaks: 19
29.00 15.20
41.00 182.43
42.00 40.38
43.00 440.17
55.00 208.86
56.00 126.04
57.00 703.38
69.00 117.76
70.00 72.46
71.00 486.90
83.00 139.76
84.00 31.81
85.00 320.66
97.00 79.52
99.00 110.88
111.00 36.17
113.00 92.51
127.00 64.08
141.00 11.01
Name: Nonacosane, 2-methyl-
Formula:
MW:
CAS#:
Comments: in-silico spectrum 11
Num peaks: 19
29.00 26.86
41.00 171.97
42.00 37.71
43.00 412.42
55.00 174.24
56.00 143.28
57.00 718.22
69.00 99.24
70.00 78.39
71.00 496.29
83.00 89.82
84.00 23.26
85.00 305.59
97.00 50.06
99.00 104.18
111.00 9.88
113.00 88.43
127.00 54.79
141.00 4.31
Name: Heptane, 2,4-dimethyl-
Formula:
MW:
CAS#:
Comments: in-silico spectrum 12
Num peaks: 13
27.00 216.53
29.00 240.41
39.00 134.73
41.00 320.86
42.00 72.67
43.00 910.94
55.00 48.10
56.00 139.41
57.00 401.85
70.00 122.76
71.00 149.91
84.00 181.91
85.00 303.21
Name: 3,3-Diethylheptadecane
Formula:
MW:
CAS#:
Comments: in-silico spectrum 13
Num peaks: 16
29.00 62.19
41.00 200.97
42.00 37.79
43.00 458.99
55.00 153.89
56.00 106.75
57.00 681.68
69.00 55.04
70.00 88.54
71.00 493.74
83.00 22.30
84.00 24.80
85.00 290.36
99.00 78.57
113.00 68.64
127.00 40.19
Name: Octane, 3,5-dimethyl-
Formula:
MW:
CAS#:
Comments: in-silico spectrum 14
Num peaks: 13
27.00 144.62
29.00 198.09
39.00 84.39
41.00 259.97
42.00 52.98
43.00 692.49
55.00 50.66
56.00 127.53
57.00 489.80
70.00 98.62
71.00 256.87
84.00 103.14
85.00 248.56
Name: Decane, 2,4,6-trimethyl-
Formula:
MW:
CAS#:
Comments: in-silico spectrum 15
Num peaks: 13
27.00 106.81
29.00 186.18
39.00 58.76
41.00 254.59
42.00 53.52
43.00 623.88
55.00 72.06
56.00 133.61
57.00 576.13
70.00 87.35
71.00 325.83
84.00 69.99
85.00 232.19
Name: Eicosane, 2-cyclohexyl-
Formula:
MW:
CAS#:
Comments: in-silico spectrum 16
Num peaks: 21
27.00 10.33
29.00 100.87
41.00 351.38
42.00 32.46
43.00 400.10
54.00 7.27
55.00 640.89
56.00 78.30
57.00 519.98
67.00 227.12
69.00 259.76
70.00 27.63
71.00 262.30
82.00 678.39
83.00 706.69
84.00 53.86
85.00 167.84
97.00 213.79
99.00 24.76
111.00 171.61
125.00 30.47
Name: Dodecane, 6-cyclohexyl-
Formula:
MW:
CAS#:
Comments: in-silico spectrum 17
Num peaks: 22
27.00 50.33
29.00 143.68
39.00 11.04
41.00 406.38
42.00 44.50
43.00 411.92
54.00 26.05
55.00 713.84
56.00 107.39
57.00 536.31
67.00 256.98
69.00 294.18
70.00 47.29
71.00 250.76
82.00 757.67
83.00 786.06
84.00 71.63
85.00 148.33
97.00 221.28
99.00 10.72
111.00 173.44
125.00 27.34
Name: Dodecane
Formula:
MW:
CAS#:
Comments: in-silico spectrum 18
Num peaks: 14
27.00 79.12
29.00 168.18
39.00 41.37
41.00 254.72
42.00 58.94
43.00 604.69
55.00 87.02
56.00 110.04
57.00 630.69
70.00 79.04
71.00 381.41
84.00 44.38
85.00 225.98
99.00 12.92
Name: Cyclopentane, (2-decyldodecyl)-
Formula:
MW:
CAS#:
Comments: in-silico spectrum 19
Num peaks: 24
27.00 2.30
29.00 98.01
39.00 21.79
41.00 492.96
42.00 76.62
43.00 523.65
55.00 628.80
56.00 157.96
57.00 498.75
67.00 258.56
68.00 217.02
69.00 494.87
70.00 96.03
71.00 222.52
82.00 373.82
83.00 598.93
84.00 84.07
85.00 140.33
95.00 141.80
96.00 96.59
97.00 369.92
99.00 18.30
111.00 230.56
125.00 77.29
Name: Octadecane, 6-methyl-
Formula:
MW:
CAS#:
Comments: in-silico spectrum 20
Num peaks: 17
27.00 3.95
29.00 105.50
41.00 226.74
42.00 50.76
43.00 493.50
55.00 142.42
56.00 125.10
57.00 681.36
69.00 42.25
70.00 75.00
71.00 443.04
83.00 12.19
84.00 27.18
85.00 252.51
99.00 60.94
113.00 47.37
127.00 2.59
Name: 5-Methyltricosane
Formula:
MW:
CAS#:
Comments: in-silico spectrum 21
Num peaks: 17
29.00 67.06
41.00 203.24
42.00 44.32
43.00 449.42
55.00 164.06
56.00 130.20
57.00 687.78
69.00 72.88
70.00 74.80
71.00 461.67
83.00 59.41
84.00 25.56
85.00 275.05
97.00 4.56
99.00 81.61
113.00 67.73
127.00 31.52
Name: Dodecane, 2,6,11-trimethyl-
Formula:
MW:
CAS#:
Comments: in-silico spectrum 22
Num peaks: 16
27.00 33.13
29.00 133.36
39.00 11.89
41.00 207.79
42.00 41.49
43.00 458.10
55.00 86.15
56.00 136.24
57.00 655.90
69.00 2.40
70.00 77.92
71.00 419.62
84.00 14.18
85.00 210.79
99.00 33.41
113.00 22.34
Name: 13,17,21-Trimethylpentatriacontane
Formula:
MW:
CAS#:
Comments: in-silico spectrum 23
Num peaks: 18
41.00 135.34
42.00 29.12
43.00 369.88
55.00 186.84
56.00 142.65
57.00 706.87
69.00 128.98
70.00 78.93
71.00 506.78
83.00 128.56
84.00 23.15
85.00 326.64
97.00 105.36
99.00 120.99
111.00 56.82
113.00 103.35
127.00 72.68
141.00 36.79
Name: Tridecane, 3-cyclohexyl-
Formula:
MW:
CAS#:
Comments: in-silico spectrum 24
Num peaks: 22
27.00 53.55
29.00 144.19
39.00 12.80
41.00 408.40
42.00 43.67
43.00 410.63
54.00 29.25
55.00 721.24
56.00 104.83
57.00 533.79
67.00 263.70
69.00 290.35
70.00 44.19
71.00 246.96
82.00 777.67
83.00 797.19
84.00 72.36
85.00 148.44
97.00 212.22
99.00 9.06
111.00 168.63
125.00 22.48
Name: 13-Methylheptacosane
Formula:
MW:
CAS#:
Comments: in-silico spectrum 25
Num peaks: 18
29.00 38.93
41.00 184.47
42.00 39.86
43.00 426.73
55.00 177.40
56.00 136.27
57.00 701.38
69.00 95.49
70.00 76.41
71.00 480.73
83.00 89.87
84.00 25.92
85.00 296.68
97.00 43.23
99.00 97.20
111.00 5.28
113.00 81.83
127.00 48.77
Name: 3-Ethyl-3-methylnonadecane
Formula:
MW:
CAS#:
Comments: in-silico spectrum 26
Num peaks: 16
29.00 45.77
41.00 185.62
42.00 33.44
43.00 429.23
55.00 153.42
56.00 119.17
57.00 701.34
69.00 64.54
70.00 89.48
71.00 511.26
83.00 30.28
84.00 19.38
85.00 297.34
99.00 88.04
113.00 77.91
127.00 50.23
Name: Decane, 2,6,6-trimethyl-
Formula:
MW:
CAS#:
Comments: in-silico spectrum 27
Num peaks: 16
27.00 31.50
29.00 123.09
39.00 12.98
41.00 190.74
42.00 27.14
43.00 424.88
55.00 72.99
56.00 144.67
57.00 651.75
69.00 0.59
70.00 91.62
71.00 437.52
84.00 14.58
85.00 224.62
99.00 31.63
113.00 21.84
Name: 2-Methyltetracosane
Formula:
MW:
CAS#:
Comments: in-silico spectrum 28
Num peaks: 17
29.00 62.03
41.00 198.67
42.00 43.84
43.00 446.43
55.00 161.18
56.00 140.10
57.00 714.35
69.00 75.20
70.00 77.06
71.00 479.84
83.00 55.44
84.00 23.10
85.00 283.67
97.00 7.59
99.00 86.92
113.00 72.94
127.00 33.93
Name: Undecane, 5,7-dimethyl-
Formula:
MW:
CAS#:
Comments: in-silico spectrum 29
Num peaks: 14
27.00 68.99
29.00 162.09
39.00 34.22
41.00 238.41
42.00 50.41
43.00 557.57
55.00 79.23
56.00 123.63
57.00 636.50
70.00 78.89
71.00 389.65
84.00 35.50
85.00 220.44
99.00 14.11
Name: Octane, 2,6,6-trimethyl-
Formula:
MW:
CAS#:
Comments: in-silico spectrum 30
Num peaks: 14
27.00 69.84
29.00 141.14
39.00 38.03
41.00 197.82
42.00 24.41
43.00 478.97
55.00 52.78
56.00 133.47
57.00 580.97
70.00 97.27
71.00 382.70
84.00 36.67
85.00 225.77
99.00 3.89
Name: 3,3-Diethylpentadecane
Formula:
MW:
CAS#:
Comments: in-silico spectrum 31
Num peaks: 16
29.00 77.39
41.00 208.76
42.00 39.11
43.00 477.11
55.00 144.10
56.00 102.12
57.00 676.09
69.00 40.98
70.00 90.61
71.00 488.52
83.00 0.37
84.00 26.36
85.00 283.64
99.00 70.05
113.00 60.23
127.00 29.38
Name: Hexacontane
Formula:
MW:
CAS#:
Comments: in-silico spectrum 32
Num peaks: 18
41.00 82.60
42.00 20.31
43.00 337.28
55.00 193.28
56.00 141.79
57.00 731.74
69.00 147.11
70.00 80.92
71.00 548.72
83.00 161.39
84.00 20.42
85.00 370.58
97.00 146.19
99.00 147.26
111.00 86.57
113.00 125.65
127.00 96.85
141.00 75.33
Name: Undecane, 3-ethyl-
Formula:
MW:
CAS#:
Comments: in-silico spectrum 33
Num peaks: 14
27.00 100.78
29.00 179.65
39.00 54.11
41.00 265.18
42.00 62.31
43.00 644.55
55.00 90.77
56.00 98.52
57.00 592.59
70.00 86.13
71.00 360.52
84.00 59.84
85.00 230.10
99.00 2.12
Name: Tridecane, 6-cyclohexyl-
Formula:
MW:
CAS#:
Comments: in-silico spectrum 34
Num peaks: 22
27.00 51.13
29.00 145.47
39.00 11.46
41.00 412.95
42.00 45.17
43.00 420.24
54.00 28.28
55.00 725.71
56.00 107.99
57.00 546.26
67.00 262.65
69.00 295.34
70.00 46.44
71.00 254.96
82.00 776.38
83.00 800.76
84.00 72.82
85.00 152.22
97.00 220.56
99.00 11.16
111.00 173.22
125.00 26.03
Name: Nonadecane, 3-methyl-
Formula:
MW:
CAS#:
Comments: in-silico spectrum 35
Num peaks: 16
29.00 78.16
41.00 197.97
42.00 41.81
43.00 431.08
55.00 146.43
56.00 139.23
57.00 685.36
69.00 60.74
70.00 77.63
71.00 457.49
83.00 36.31
84.00 21.70
85.00 260.64
99.00 74.07
113.00 61.44
127.00 23.96
Name: Nonane, 3,7-dimethyl-
Formula:
MW:
CAS#:
Comments: in-silico spectrum 36
Num peaks: 14
27.00 73.02
29.00 173.08
39.00 35.31
41.00 237.34
42.00 41.81
43.00 554.60
55.00 74.23
56.00 152.09
57.00 689.32
70.00 99.36
71.00 437.58
84.00 34.61
85.00 237.77
99.00 11.91
Name: Undecane, 2,7-dimethyl-
Formula:
MW:
CAS#:
Comments: in-silico spectrum 37
Num peaks: 15
27.00 54.92
29.00 150.90
39.00 26.21
41.00 230.09
42.00 47.96
43.00 533.61
55.00 74.09
56.00 122.89
57.00 666.20
70.00 76.62
71.00 416.82
84.00 19.51
85.00 218.21
99.00 22.95
113.00 9.13
Name: Octane, 2,3,3-trimethyl-
Formula:
MW:
CAS#:
Comments: in-silico spectrum 38
Num peaks: 13
27.00 103.75
29.00 163.77
39.00 59.05
41.00 233.72
42.00 33.74
43.00 597.39
55.00 59.43
56.00 110.82
57.00 570.40
70.00 105.02
71.00 373.94
84.00 61.73
85.00 252.38
Name: Decane, 5,6-dimethyl-
Formula:
MW:
CAS#:
Comments: in-silico spectrum 39
Num peaks: 14
27.00 96.60
29.00 181.49
39.00 50.58
41.00 256.37
42.00 51.52
43.00 632.57
55.00 74.84
56.00 118.36
57.00 642.98
70.00 94.77
71.00 402.04
84.00 50.75
85.00 243.06
99.00 1.40
Name: Cycloundecane, 1,1,2-trimethyl-
Formula:
MW:
CAS#:
Comments: in-silico spectrum 40
Num peaks: 22
27.00 223.14
29.00 279.64
39.00 137.84
41.00 481.98
42.00 116.42
43.00 322.79
55.00 588.45
56.00 357.15
57.00 271.79
67.00 63.66
69.00 613.85
70.00 290.43
71.00 83.24
82.00 33.32
83.00 388.76
84.00 202.63
85.00 60.16
97.00 287.68
98.00 18.48
111.00 224.78
112.00 34.69
125.00 19.19
Name: Heptadecane, 2-methyl-
Formula:
MW:
CAS#:
Comments: in-silico spectrum 41
Num peaks: 16
27.00 16.36
29.00 119.50
39.00 3.85
41.00 232.04
42.00 52.75
43.00 510.05
55.00 125.28
56.00 129.10
57.00 697.32
69.00 25.11
70.00 75.90
71.00 446.96
84.00 24.14
85.00 246.22
99.00 54.06
113.00 40.58
Name: Octatriacontane, 3,5-dimethyl-
Formula:
MW:
CAS#:
Comments: in-silico spectrum 42
Num peaks: 18
41.00 115.82
42.00 25.65
43.00 344.41
55.00 182.53
56.00 142.62
57.00 694.43
69.00 129.74
70.00 78.01
71.00 502.37
83.00 135.07
84.00 21.64
85.00 326.82
97.00 114.55
99.00 124.14
111.00 64.84
113.00 105.97
127.00 77.31
141.00 47.04
Name: Cyclopropane, 1-methyl-1-(1-methylethyl)-2-nonyl-
Formula:
MW:
CAS#:
Comments: in-silico spectrum 43
Num peaks: 24
27.00 116.08
29.00 187.50
39.00 78.86
41.00 507.36
42.00 95.79
43.00 394.07
55.00 640.55
56.00 253.63
57.00 370.21
67.00 191.37
68.00 107.46
69.00 602.51
70.00 199.16
71.00 155.10
82.00 217.38
83.00 528.39
84.00 135.39
85.00 82.46
95.00 63.54
96.00 40.40
97.00 366.13
98.00 12.18
111.00 256.80
125.00 70.27
Name: Hexadecane, 8-hexyl-8-pentyl-
Formula:
MW:
CAS#:
Comments: in-silico spectrum 44
Num peaks: 17
29.00 31.77
41.00 196.07
42.00 38.63
43.00 457.07
55.00 187.87
56.00 126.94
57.00 738.52
69.00 93.46
70.00 84.93
71.00 526.27
83.00 81.21
84.00 25.71
85.00 324.45
97.00 22.82
99.00 103.49
113.00 89.62
127.00 61.62
Name: 4,4-Dipropylheptane
Formula:
MW:
CAS#:
Comments: in-silico spectrum 45
Num peaks: 13
27.00 111.98
29.00 166.46
39.00 67.10
41.00 241.00
42.00 42.73
43.00 616.65
55.00 70.57
56.00 118.09
57.00 494.62
70.00 93.97
71.00 288.20
84.00 94.52
85.00 259.07
Name: 2-methyloctacosane
Formula:
MW:
CAS#:
Comments: in-silico spectrum 46
Num peaks: 18
29.00 34.61
41.00 178.61
42.00 39.21
43.00 420.65
55.00 172.80
56.00 142.57
57.00 717.64
69.00 95.03
70.00 77.96
71.00 492.57
83.00 84.42
84.00 23.46
85.00 301.18
97.00 42.59
99.00 100.67
111.00 3.54
113.00 85.28
127.00 50.58
Name: Cyclohexane, 1,1-dimethyl-2-propyl-
Formula:
MW:
CAS#:
Comments: in-silico spectrum 47
Num peaks: 19
27.00 241.02
29.00 262.92
39.00 142.45
41.00 415.99
42.00 100.36
43.00 310.51
55.00 528.01
56.00 279.02
57.00 178.22
67.00 69.47
69.00 490.47
70.00 245.38
71.00 32.89
82.00 96.04
83.00 338.65
84.00 192.47
85.00 60.86
97.00 162.26
111.00 145.62
Name: Tricosane
Formula:
MW:
CAS#:
Comments: in-silico spectrum 48
Num peaks: 16
29.00 73.90
41.00 211.16
42.00 46.43
43.00 465.37
55.00 165.13
56.00 132.70
57.00 705.04
69.00 67.75
70.00 75.72
71.00 469.69
83.00 55.52
84.00 27.08
85.00 279.43
99.00 81.65
113.00 67.70
127.00 30.90
Name: Dodecane, 2-methyl-6-propyl-
Formula:
MW:
CAS#:
Comments: in-silico spectrum 49
Num peaks: 16
27.00 34.68
29.00 138.12
39.00 13.43
41.00 242.62
42.00 54.05
43.00 539.86
55.00 113.28
56.00 126.45
57.00 706.53
69.00 8.89
70.00 79.87
71.00 453.03
84.00 23.68
85.00 243.12
99.00 44.23
113.00 30.52
Name: Triacontane, 11,20-didecyl-
Formula:
MW:
CAS#:
Comments: in-silico spectrum 50
Num peaks: 18
41.00 132.01
42.00 29.55
43.00 389.92
55.00 205.16
56.00 137.78
57.00 730.32
69.00 141.66
70.00 77.90
71.00 528.84
83.00 155.03
84.00 26.24
85.00 354.18
97.00 125.81
99.00 133.68
111.00 71.89
113.00 113.80
127.00 83.47
141.00 49.19
Name: Tetracosane, 12-decyl-12-nonyl-
Formula:
MW:
CAS#:
Comments: in-silico spectrum 51
Num peaks: 18
41.00 148.26
42.00 30.53
43.00 417.67
55.00 207.99
56.00 132.86
57.00 759.32
69.00 134.06
70.00 84.84
71.00 559.32
83.00 137.03
84.00 26.13
85.00 368.98
97.00 95.74
99.00 135.02
111.00 46.55
113.00 116.42
127.00 90.26
141.00 46.75
Name: Hexadecane, 4-methyl-
Formula:
MW:
CAS#:
Comments: in-silico spectrum 52
Num peaks: 16
27.00 40.91
29.00 139.35
39.00 17.17
41.00 247.30
42.00 57.17
43.00 549.74
55.00 124.21
56.00 114.18
57.00 669.45
69.00 14.81
70.00 78.11
71.00 427.14
84.00 33.39
85.00 239.83
99.00 41.42
113.00 26.62
Name: Heptane, 2,2,3,3,5,6,6-heptamethyl-
Formula:
MW:
CAS#:
Comments: in-silico spectrum 53
Num peaks: 16
27.00 10.03
29.00 87.12
39.00 0.24
41.00 148.48
42.00 9.40
43.00 330.39
55.00 65.84
56.00 134.68
57.00 597.01
69.00 14.07
70.00 97.82
71.00 437.58
84.00 1.10
85.00 213.22
99.00 35.85
113.00 29.73
Name: Undecane
Formula:
MW:
CAS#:
Comments: in-silico spectrum 54
Num peaks: 14
27.00 92.29
29.00 181.04
39.00 49.45
41.00 269.04
42.00 62.43
43.00 649.51
55.00 84.71
56.00 113.20
57.00 640.35
70.00 81.94
71.00 379.38
84.00 52.46
85.00 235.05
99.00 6.04
Name: 3-Methylheptacosane
Formula:
MW:
CAS#:
Comments: in-silico spectrum 55
Num peaks: 19
29.00 24.66
41.00 161.54
42.00 34.04
43.00 386.76
55.00 172.25
56.00 145.25
57.00 697.97
69.00 101.45
70.00 78.98
71.00 484.74
83.00 96.04
84.00 22.93
85.00 297.50
97.00 59.74
99.00 102.39
111.00 19.72
113.00 86.73
127.00 56.58
141.00 9.95
Name: Eicosane, 3-methyl-
Formula:
MW:
CAS#:
Comments: in-silico spectrum 56
Num peaks: 17
29.00 70.67
41.00 193.43
42.00 40.63
43.00 423.71
55.00 151.59
56.00 140.28
57.00 686.79
69.00 67.49
70.00 77.48
71.00 460.79
83.00 47.10
84.00 21.87
85.00 265.71
97.00 0.92
99.00 78.32
113.00 65.40
127.00 29.50
Name: 5-Methyldocosane
Formula:
MW:
CAS#:
Comments: in-silico spectrum 57
Num peaks: 16
29.00 75.10
41.00 209.01
42.00 45.93
43.00 458.50
55.00 160.54
56.00 129.22
57.00 686.53
69.00 67.00
70.00 74.52
71.00 457.45
83.00 50.94
84.00 25.85
85.00 270.02
99.00 77.44
113.00 63.70
127.00 25.86
Name: Hexadecane
Formula:
MW:
CAS#:
Comments: in-silico spectrum 58
Num peaks: 16
27.00 25.05
29.00 125.27
39.00 8.57
41.00 236.45
42.00 54.24
43.00 520.38
55.00 126.99
56.00 120.78
57.00 679.54
69.00 20.39
70.00 75.36
71.00 434.04
84.00 28.59
85.00 242.35
99.00 49.88
113.00 36.07
Name: Hexacosane, 13-dodecyl-
Formula:
MW:
CAS#:
Comments: in-silico spectrum 59
Num peaks: 18
41.00 167.21
42.00 37.20
43.00 423.85
55.00 208.38
56.00 132.86
57.00 714.56
69.00 126.97
70.00 74.65
71.00 500.19
83.00 146.57
84.00 30.67
85.00 331.46
97.00 97.34
99.00 118.74
111.00 50.07
113.00 99.53
127.00 70.14
141.00 24.13
Name: 13,17,21-Trimethyltritriacontane
Formula:
MW:
CAS#:
Comments: in-silico spectrum 60
Num peaks: 18
41.00 146.02
42.00 30.66
43.00 378.66
55.00 181.59
56.00 145.98
57.00 713.39
69.00 120.78
70.00 79.99
71.00 506.38
83.00 114.01
84.00 22.56
85.00 319.59
97.00 90.27
99.00 115.51
111.00 44.35
113.00 98.96
127.00 67.21
141.00 27.57
Name: Tetracosane
Formula:
MW:
CAS#:
Comments: in-silico spectrum 61
Num peaks: 17
29.00 62.45
41.00 198.81
42.00 43.40
43.00 444.01
55.00 165.20
56.00 131.49
57.00 693.21
69.00 72.68
70.00 74.97
71.00 466.42
83.00 63.60
84.00 25.84
85.00 279.77
97.00 6.48
99.00 84.98
113.00 71.04
127.00 36.86
Name: Hexadecane, 7,9-dimethyl-
Formula:
MW:
CAS#:
Comments: in-silico spectrum 62
Num peaks: 16
27.00 20.19
29.00 119.82
39.00 5.49
41.00 225.67
42.00 50.33
43.00 490.69
55.00 124.68
56.00 124.12
57.00 658.35
69.00 29.56
70.00 73.49
71.00 420.35
84.00 26.90
85.00 234.39
99.00 48.72
113.00 35.83
Name: Cis-1,3-di(n-hexyl)cyclohexane
Formula:
MW:
CAS#:
Comments: in-silico spectrum 63
Num peaks: 22
27.00 54.31
29.00 142.75
39.00 25.34
41.00 402.21
42.00 59.13
43.00 374.08
55.00 626.00
56.00 147.41
57.00 443.80
67.00 203.60
69.00 384.21
70.00 94.25
71.00 201.70
82.00 488.83
83.00 634.44
84.00 83.02
85.00 109.47
96.00 25.80
97.00 296.83
99.00 2.43
111.00 211.43
125.00 53.54
Name: Naphthalene, 1-(1-decylundecyl)decahydro-
Formula:
MW:
CAS#:
Comments: in-silico spectrum 64
Num peaks: 23
29.00 34.55
41.00 335.35
42.00 20.93
43.00 356.07
55.00 563.83
56.00 45.78
57.00 377.79
67.00 246.44
69.00 352.12
70.00 22.97
71.00 191.51
82.00 445.84
83.00 568.86
84.00 33.68
85.00 120.48
95.00 177.15
96.00 73.71
97.00 277.48
99.00 12.42
109.00 16.18
111.00 203.94
125.00 50.22
217.00 47.93
Name: Tridecane, 4,8-dimethyl-
Formula:
MW:
CAS#:
Comments: in-silico spectrum 65
Num peaks: 15
27.00 55.23
29.00 152.66
39.00 25.02
41.00 235.27
42.00 49.49
43.00 533.90
55.00 93.38
56.00 124.16
57.00 658.43
70.00 83.71
71.00 420.94
84.00 29.94
85.00 226.97
99.00 26.64
113.00 12.64
Name: 3-Methyltriacontane
Formula:
MW:
CAS#:
Comments: in-silico spectrum 66
Num peaks: 19
29.00 11.29
41.00 152.26
42.00 32.45
43.00 379.32
55.00 177.31
56.00 146.05
57.00 702.01
69.00 110.23
70.00 79.23
71.00 492.01
83.00 108.50
84.00 23.29
85.00 307.08
97.00 75.21
99.00 109.04
111.00 32.45
113.00 92.62
127.00 62.80
141.00 20.22
Name: Undecane, 5-methyl-
Formula:
MW:
CAS#:
Comments: in-silico spectrum 67
Num peaks: 14
27.00 71.71
29.00 161.96
39.00 36.44
41.00 244.07
42.00 54.31
43.00 576.36
55.00 80.00
56.00 112.16
57.00 635.43
70.00 78.16
71.00 391.08
84.00 34.88
85.00 220.25
99.00 14.96
Name: 9-methylheptadecane
Formula:
MW:
CAS#:
Comments: in-silico spectrum 68
Num peaks: 16
27.00 14.61
29.00 120.94
39.00 2.62
41.00 240.79
42.00 53.97
43.00 523.46
55.00 137.57
56.00 130.74
57.00 707.45
69.00 34.55
70.00 77.03
71.00 453.82
84.00 27.87
85.00 254.55
99.00 56.58
113.00 42.65
Name: 11-Methylnonacosane
Formula:
MW:
CAS#:
Comments: in-silico spectrum 69
Num peaks: 19
29.00 26.85
41.00 175.95
42.00 38.13
43.00 417.45
55.00 182.43
56.00 135.48
57.00 700.11
69.00 103.12
70.00 76.34
71.00 484.50
83.00 102.03
84.00 26.37
85.00 303.84
97.00 56.40
99.00 102.75
111.00 16.58
113.00 86.65
127.00 55.49
141.00 3.99
Name: 4,8,12-Trimethyldotriacontane
Formula:
MW:
CAS#:
Comments: in-silico spectrum 70
Num peaks: 18
41.00 147.34
42.00 31.47
43.00 381.79
55.00 186.45
56.00 134.82
57.00 690.74
69.00 120.44
70.00 76.88
71.00 492.11
83.00 122.71
84.00 24.43
85.00 315.65
97.00 90.15
99.00 113.75
111.00 45.62
113.00 96.97
127.00 67.59
141.00 26.99
Name: Decane, 5,6-bis(2,2-dimethylpropylidene)-, (E,Z)-
Formula:
MW:
CAS#:
Comments: in-silico spectrum 71
Num peaks: 23
27.00 90.06
29.00 217.59
39.00 55.62
41.00 380.76
42.00 86.19
43.00 355.80
55.00 418.79
56.00 318.08
57.00 519.21
67.00 18.34
68.00 21.20
69.00 423.67
70.00 180.57
71.00 232.55
83.00 305.36
84.00 118.33
85.00 127.59
97.00 287.10
98.00 35.31
99.00 5.24
111.00 196.96
112.00 36.58
125.00 151.87
Name: Undecane, 4,6-dimethyl-
Formula:
MW:
CAS#:
Comments: in-silico spectrum 72
Num peaks: 13
27.00 95.29
29.00 175.47
39.00 51.34
41.00 249.09
42.00 54.50
43.00 607.26
55.00 76.30
56.00 115.03
57.00 583.05
70.00 84.16
71.00 346.89
84.00 57.80
85.00 224.74
Name: 1-Cyclopentyleicosane
Formula:
MW:
CAS#:
Comments: in-silico spectrum 73
Num peaks: 24
27.00 11.68
29.00 90.29
39.00 30.34
41.00 510.24
42.00 75.05
43.00 494.45
55.00 662.19
56.00 152.48
57.00 441.79
67.00 301.93
68.00 252.70
69.00 524.33
70.00 97.65
71.00 178.95
82.00 428.76
83.00 637.35
84.00 85.93
85.00 109.09
95.00 217.87
96.00 104.14
97.00 367.67
99.00 4.94
111.00 224.56
125.00 65.95
Name: 13-Methylnonacosane
Formula:
MW:
CAS#:
Comments: in-silico spectrum 74
Num peaks: 19
29.00 26.71
41.00 175.40
42.00 38.00
43.00 416.55
55.00 181.87
56.00 136.70
57.00 702.02
69.00 103.37
70.00 76.70
71.00 485.79
83.00 101.41
84.00 26.19
85.00 304.22
97.00 56.85
99.00 103.02
111.00 16.81
113.00 86.90
127.00 55.50
141.00 4.33
Name: Hexacosane, 9-octyl-
Formula:
MW:
CAS#:
Comments: in-silico spectrum 75
Num peaks: 19
29.00 15.04
41.00 185.68
42.00 41.11
43.00 446.59
55.00 214.84
56.00 117.89
57.00 694.62
69.00 115.56
70.00 69.81
71.00 481.19
83.00 146.65
84.00 32.38
85.00 319.85
97.00 76.04
99.00 109.73
111.00 34.37
113.00 91.08
127.00 64.80
141.00 9.16
Name: Dodecane, 3-methyl-
Formula:
MW:
CAS#:
Comments: in-silico spectrum 76
Num peaks: 15
27.00 57.18
29.00 151.55
39.00 27.03
41.00 230.70
42.00 49.05
43.00 531.72
55.00 84.03
56.00 119.76
57.00 647.09
70.00 81.44
71.00 410.74
84.00 28.24
85.00 221.23
99.00 23.84
113.00 9.76
Name: Heptane, 2,3-dimethyl-
Formula:
MW:
CAS#:
Comments: in-silico spectrum 77
Num peaks: 13
27.00 183.10
29.00 222.17
39.00 108.89
41.00 302.48
42.00 60.79
43.00 856.44
55.00 44.58
56.00 96.59
57.00 511.79
70.00 110.67
71.00 279.35
84.00 121.05
85.00 286.35
Name: 3,3-Diethyltridecane
Formula:
MW:
CAS#:
Comments: in-silico spectrum 78
Num peaks: 17
27.00 17.90
29.00 98.61
39.00 6.09
41.00 219.63
42.00 41.19
43.00 505.51
55.00 131.10
56.00 95.37
57.00 667.79
69.00 21.95
70.00 93.80
71.00 480.71
84.00 29.16
85.00 275.46
99.00 57.92
113.00 47.54
127.00 13.00
Name: Docosane, 7-hexyl-
Formula:
MW:
CAS#:
Comments: in-silico spectrum 79
Num peaks: 17
29.00 57.52
41.00 220.07
42.00 48.87
43.00 486.55
55.00 202.74
56.00 114.73
57.00 692.43
69.00 90.73
70.00 68.76
71.00 463.76
83.00 110.39
84.00 32.98
85.00 295.28
97.00 29.15
99.00 90.57
113.00 74.37
127.00 42.88
Name: Pentacosane
Formula:
MW:
CAS#:
Comments: in-silico spectrum 80
Num peaks: 17
29.00 61.49
41.00 202.20
42.00 44.09
43.00 452.03
55.00 170.87
56.00 133.82
57.00 705.72
69.00 77.00
70.00 75.81
71.00 474.83
83.00 69.45
84.00 26.92
85.00 286.81
97.00 11.94
99.00 87.86
113.00 73.44
127.00 39.00
Name: Hexadecane, 2,6,10-trimethyl-
Formula:
MW:
CAS#:
Comments: in-silico spectrum 81
Num peaks: 15
29.00 101.26
41.00 208.84
42.00 43.49
43.00 455.15
55.00 124.42
56.00 140.58
57.00 699.70
69.00 38.43
70.00 80.00
71.00 462.08
84.00 17.12
85.00 249.04
99.00 61.50
113.00 49.83
127.00 3.47
Name: Cyclooctacosane
Formula:
MW:
CAS#:
Comments: in-silico spectrum 82
Num peaks: 24
27.00 36.43
29.00 167.64
39.00 23.48
41.00 442.52
42.00 85.01
43.00 454.60
55.00 633.44
56.00 238.02
57.00 560.70
67.00 144.90
68.00 52.08
69.00 471.80
70.00 155.27
71.00 266.91
82.00 351.74
83.00 607.29
84.00 113.18
85.00 153.92
96.00 66.49
97.00 394.82
98.00 14.63
99.00 20.55
111.00 266.04
125.00 103.61
Name: Hexane, 2,3,5-trimethyl-
Formula:
MW:
CAS#:
Comments: in-silico spectrum 83
Num peaks: 13
27.00 166.98
29.00 198.20
39.00 101.30
41.00 269.90
42.00 54.48
43.00 774.82
55.00 28.40
56.00 93.60
57.00 434.85
70.00 91.35
71.00 212.45
84.00 112.86
85.00 253.16
Name: 6,6-Diethylhexadecane
Formula:
MW:
CAS#:
Comments: in-silico spectrum 84
Num peaks: 16
29.00 58.43
41.00 204.38
42.00 38.63
43.00 463.78
55.00 163.21
56.00 107.21
57.00 693.09
69.00 59.30
70.00 85.75
71.00 498.88
83.00 36.06
84.00 24.03
85.00 295.33
99.00 82.52
113.00 72.32
127.00 45.13
Name: Pentatriacontane, 13-docosenylidene-
Formula:
MW:
CAS#:
Comments: in-silico spectrum 85
Num peaks: 22
29.00 53.05
41.00 268.45
42.00 52.36
43.00 499.41
55.00 370.64
56.00 143.91
57.00 667.58
67.00 62.22
69.00 240.88
70.00 56.04
71.00 390.55
82.00 197.72
83.00 354.22
84.00 56.76
85.00 286.32
96.00 40.68
97.00 250.40
99.00 94.38
111.00 170.31
113.00 65.95
125.00 110.02
127.00 25.82
Name: Pentatriacontane
Formula:
MW:
CAS#:
Comments: in-silico spectrum 86
Num peaks: 19
29.00 2.61
41.00 153.61
42.00 34.05
43.00 395.10
55.00 186.93
56.00 138.41
57.00 708.15
69.00 112.48
70.00 77.02
71.00 497.65
83.00 120.86
84.00 26.09
85.00 319.67
97.00 78.69
99.00 114.92
111.00 34.71
113.00 97.29
127.00 69.06
141.00 25.28
Name: Heptane, 3,4-dimethyl-
Formula:
MW:
CAS#:
Comments: in-silico spectrum 87
Num peaks: 13
27.00 210.90
29.00 233.87
39.00 128.44
41.00 308.63
42.00 62.56
43.00 899.65
55.00 41.24
56.00 113.97
57.00 435.57
70.00 126.00
71.00 210.74
84.00 161.36
85.00 306.60
Name: Pentane, 2,2,3,4-tetramethyl-
Formula:
MW:
CAS#:
Comments: in-silico spectrum 88
Num peaks: 13
27.00 202.93
29.00 205.23
39.00 130.05
41.00 276.04
42.00 52.86
43.00 779.03
55.00 43.55
56.00 142.72
57.00 302.88
70.00 133.93
71.00 112.96
84.00 181.02
85.00 288.62
Name: Nonane, 5-(2-methylpropyl)-
Formula:
MW:
CAS#:
Comments: in-silico spectrum 89
Num peaks: 15
27.00 72.31
29.00 179.70
39.00 34.68
41.00 264.23
42.00 56.18
43.00 606.08
55.00 93.88
56.00 142.08
57.00 706.01
70.00 84.84
71.00 428.08
84.00 38.77
85.00 239.97
99.00 17.17
113.00 0.49
Name: Octadecane, 2,6-dimethyl-
Formula:
MW:
CAS#:
Comments: in-silico spectrum 90
Num peaks: 16
29.00 101.15
41.00 218.56
42.00 47.80
43.00 477.72
55.00 134.37
56.00 133.66
57.00 698.14
69.00 41.30
70.00 77.89
71.00 458.05
83.00 0.81
84.00 22.02
85.00 254.62
99.00 63.37
113.00 50.64
127.00 4.39
Name: Octane, 2-methyl-
Formula:
MW:
CAS#:
Comments: in-silico spectrum 91
Num peaks: 13
27.00 125.21
29.00 192.40
39.00 72.25
41.00 267.89
42.00 60.07
43.00 696.54
55.00 50.11
56.00 111.01
57.00 554.92
70.00 79.57
71.00 296.01
84.00 71.65
85.00 228.83
