Name: Undecane, 5-cyclohexyl-
Formula:
MW:
CAS#:
Comments: in-silico spectrum 1
Num peaks: 72
26.00 8.71
27.00 126.12
28.00 39.70
29.00 221.72
30.00 4.17
39.00 105.89
40.00 25.76
41.00 597.86
42.00 130.41
43.00 669.14
44.00 25.07
51.00 8.02
53.00 50.80
54.00 68.37
55.00 746.88
56.00 274.23
57.00 618.95
58.00 26.52
65.00 13.20
66.00 7.19
67.00 206.28
68.00 128.43
69.00 544.59
70.00 215.91
71.00 289.35
72.00 14.55
77.00 13.22
79.00 7.70
81.00 88.34
82.00 355.68
83.00 643.39
84.00 162.40
85.00 183.64
86.00 10.21
91.00 13.37
95.00 59.30
96.00 75.16
97.00 390.00
98.00 75.99
99.00 13.34
100.00 0.65
109.00 16.67
110.00 31.72
111.00 229.17
112.00 53.84
115.00 2.01
124.00 20.55
125.00 109.82
126.00 33.05
128.00 1.08
131.00 20.36
137.00 4.03
138.00 14.61
139.00 54.99
140.00 36.02
152.00 12.29
153.00 37.17
154.00 18.34
166.00 12.26
167.00 28.61
180.00 8.53
181.00 14.62
182.00 14.80
195.00 8.10
209.00 7.00
210.00 13.72
222.00 5.42
223.00 11.44
236.00 3.29
237.00 2.07
251.00 4.32
280.00 0.79
Name: Cyclohexane, 1,1'-tetradecylidenebis-
Formula:
MW:
CAS#:
Comments: in-silico spectrum 2
Num peaks: 140
26.00 6.26
27.00 70.33
28.00 30.38
29.00 160.14
39.00 81.71
40.00 28.23
41.00 610.47
42.00 119.26
43.00 597.98
44.00 28.26
51.00 5.97
53.00 55.28
54.00 76.22
55.00 888.13
56.00 274.47
57.00 610.81
58.00 26.39
65.00 15.81
66.00 12.17
67.00 268.77
68.00 159.14
69.00 662.61
70.00 210.26
71.00 289.94
72.00 14.48
77.00 24.47
78.00 0.36
79.00 58.52
80.00 20.23
81.00 163.77
82.00 450.28
83.00 805.44
84.00 149.68
85.00 186.66
86.00 11.14
91.00 31.54
92.00 5.78
93.00 41.30
94.00 17.70
95.00 137.44
96.00 120.17
97.00 502.83
98.00 88.89
99.00 43.62
100.00 4.05
105.00 13.48
107.00 33.85
108.00 26.72
109.00 105.51
110.00 64.63
111.00 292.75
112.00 52.82
113.00 19.20
115.00 1.27
119.00 3.79
121.00 31.81
122.00 20.34
123.00 56.10
124.00 39.57
125.00 145.80
126.00 32.89
127.00 7.97
128.00 5.12
129.00 2.29
131.00 15.23
132.00 1.66
133.00 1.31
135.00 32.36
136.00 13.75
137.00 55.97
138.00 28.81
139.00 70.30
140.00 40.08
141.00 10.07
147.00 4.92
148.00 6.29
149.00 61.16
150.00 23.16
151.00 28.07
152.00 23.92
153.00 54.03
154.00 22.80
155.00 2.05
160.00 4.08
162.00 11.47
163.00 12.03
165.00 10.41
166.00 12.88
167.00 32.93
168.00 1.57
175.00 2.86
177.00 10.73
179.00 11.86
180.00 18.90
181.00 19.91
182.00 15.54
183.00 0.30
190.00 8.83
191.00 7.98
194.00 2.81
195.00 12.68
203.00 12.42
204.00 21.35
205.00 12.99
206.00 5.75
207.00 5.27
208.00 4.56
209.00 11.22
210.00 17.65
217.00 63.44
218.00 46.05
219.00 12.68
222.00 15.17
223.00 24.11
232.00 13.44
233.00 16.31
234.00 8.22
236.00 9.32
237.00 8.51
238.00 5.04
250.00 0.65
251.00 8.46
257.00 31.78
258.00 10.81
259.00 21.89
260.00 4.22
266.00 14.36
280.00 16.25
285.00 11.91
292.00 6.20
293.00 7.85
294.00 11.06
300.00 15.03
321.00 3.14
368.00 2.04
397.00 17.86
400.00 5.18
412.00 53.33
413.00 18.85
420.00 6.20
Name: Decane, 2,3,7-trimethyl-
Formula:
MW:
CAS#:
Comments: in-silico spectrum 3
Num peaks: 46
26.00 4.29
27.00 123.36
28.00 25.65
29.00 194.47
30.00 3.08
39.00 83.43
40.00 13.14
41.00 357.54
42.00 94.77
43.00 788.69
44.00 21.78
51.00 3.67
53.00 22.93
54.00 9.33
55.00 169.61
56.00 183.88
57.00 792.63
58.00 35.33
65.00 2.34
68.00 2.18
69.00 79.20
70.00 149.00
71.00 490.81
72.00 24.26
83.00 2.92
84.00 108.73
85.00 325.92
86.00 19.37
98.00 27.12
99.00 48.11
100.00 3.01
112.00 32.95
113.00 26.10
114.00 0.27
126.00 24.89
127.00 23.60
128.00 1.91
140.00 13.38
141.00 16.29
142.00 1.74
154.00 9.15
155.00 11.09
156.00 0.22
182.00 5.79
183.00 6.32
210.00 0.32
Name: Cyclopropane, 1-(1,2-dimethylpropyl)-1-methyl-2-nonyl-
Formula:
MW:
CAS#:
Comments: in-silico spectrum 4
Num peaks: 90
26.00 7.42
27.00 89.77
28.00 32.20
29.00 171.07
30.00 1.57
39.00 85.87
40.00 26.62
41.00 537.17
42.00 112.06
43.00 601.85
44.00 26.37
51.00 8.66
53.00 51.33
54.00 58.94
55.00 704.87
56.00 249.08
57.00 597.89
58.00 25.45
65.00 15.33
66.00 7.03
67.00 199.81
68.00 120.43
69.00 521.15
70.00 194.73
71.00 299.33
72.00 15.49
77.00 20.90
79.00 32.54
80.00 6.65
81.00 108.78
82.00 331.60
83.00 610.03
84.00 140.07
85.00 194.01
86.00 11.64
91.00 22.45
93.00 6.03
95.00 84.04
96.00 81.78
97.00 378.69
98.00 72.57
99.00 34.83
100.00 2.60
109.00 53.48
110.00 42.39
111.00 222.19
112.00 47.07
113.00 13.87
115.00 4.74
123.00 18.66
124.00 27.98
125.00 109.16
126.00 30.47
127.00 6.28
128.00 4.95
129.00 3.44
131.00 19.15
132.00 3.16
137.00 24.71
138.00 18.92
139.00 53.78
140.00 35.13
141.00 8.72
149.00 15.03
151.00 3.84
152.00 16.78
153.00 40.46
154.00 19.25
155.00 0.62
165.00 6.90
166.00 10.32
167.00 27.09
180.00 11.34
181.00 12.53
182.00 12.81
195.00 8.13
208.00 0.77
209.00 6.42
210.00 13.94
217.00 19.75
218.00 6.87
222.00 6.48
223.00 12.98
236.00 3.74
237.00 1.88
251.00 2.80
257.00 4.87
266.00 4.61
280.00 6.39
412.00 13.76
Name: Z-14-Nonacosane
Formula:
MW:
CAS#:
Comments: in-silico spectrum 5
Num peaks: 81
26.00 3.07
27.00 61.72
28.00 21.70
29.00 139.16
30.00 1.54
39.00 64.97
40.00 14.08
41.00 434.52
42.00 104.57
43.00 737.83
44.00 22.85
53.00 28.57
54.00 39.66
55.00 452.79
56.00 224.25
57.00 827.08
58.00 37.77
65.00 5.50
67.00 92.90
68.00 64.62
69.00 309.69
70.00 169.03
71.00 506.50
72.00 25.88
81.00 26.22
82.00 146.03
83.00 318.48
84.00 116.25
85.00 340.14
86.00 21.31
91.00 3.26
95.00 1.68
96.00 37.28
97.00 210.64
98.00 59.34
99.00 91.47
100.00 7.82
110.00 11.14
111.00 121.42
112.00 46.47
113.00 58.34
114.00 3.55
124.00 8.11
125.00 60.04
126.00 32.97
127.00 42.35
128.00 3.85
138.00 3.63
139.00 29.11
140.00 31.43
141.00 34.52
142.00 3.03
152.00 3.81
153.00 17.73
154.00 21.73
155.00 25.09
156.00 0.51
166.00 5.52
167.00 15.38
168.00 10.62
169.00 12.56
181.00 6.65
182.00 16.44
183.00 17.45
184.00 0.93
195.00 3.25
197.00 2.18
209.00 2.32
210.00 17.66
211.00 7.60
223.00 2.64
224.00 5.51
225.00 3.80
226.00 1.38
238.00 5.02
266.00 6.82
267.00 2.84
280.00 9.95
281.00 6.21
294.00 2.18
295.00 2.92
Name: 11-Methylpentacosane
Formula:
MW:
CAS#:
Comments: in-silico spectrum 6
Num peaks: 84
27.00 28.61
28.00 10.13
29.00 90.30
39.00 39.75
40.00 7.39
41.00 311.41
42.00 80.47
43.00 738.85
44.00 20.63
53.00 14.92
54.00 16.00
55.00 233.81
56.00 177.00
57.00 889.94
58.00 41.44
65.00 0.67
67.00 14.14
68.00 17.77
69.00 136.54
70.00 130.08
71.00 595.32
72.00 30.34
83.00 84.17
84.00 81.26
85.00 404.34
86.00 25.49
96.00 6.19
97.00 72.96
98.00 42.09
99.00 123.79
100.00 10.64
111.00 39.01
112.00 36.55
113.00 85.61
114.00 6.98
125.00 18.82
126.00 28.56
127.00 64.19
128.00 4.97
139.00 6.95
140.00 22.85
141.00 48.70
142.00 5.32
153.00 1.81
154.00 20.16
155.00 40.64
156.00 4.68
167.00 3.92
168.00 23.65
169.00 29.68
170.00 2.39
182.00 13.29
183.00 26.92
184.00 4.21
196.00 9.02
197.00 17.28
198.00 1.27
210.00 14.27
211.00 19.96
224.00 17.09
225.00 18.37
226.00 4.88
238.00 8.86
239.00 19.95
240.00 1.67
252.00 7.23
253.00 12.05
266.00 7.05
267.00 11.50
268.00 1.90
280.00 9.77
281.00 16.38
282.00 2.38
294.00 4.49
295.00 14.76
296.00 5.38
308.00 3.04
309.00 11.70
310.00 1.59
323.00 3.89
324.00 2.91
337.00 2.25
338.00 0.09
351.00 5.45
Name: Cyclopentane, (4-octyldodecyl)-
Formula:
MW:
CAS#:
Comments: in-silico spectrum 7
Num peaks: 90
26.00 5.99
27.00 81.50
28.00 31.30
29.00 175.14
30.00 1.86
39.00 85.66
40.00 23.10
41.00 586.53
42.00 126.10
43.00 696.52
44.00 26.40
51.00 2.83
53.00 46.85
54.00 69.88
55.00 770.91
56.00 276.36
57.00 726.81
58.00 32.12
65.00 11.89
66.00 8.07
67.00 213.36
68.00 132.32
69.00 562.28
70.00 211.04
71.00 383.17
72.00 19.32
77.00 12.17
79.00 19.81
80.00 0.72
81.00 107.95
82.00 360.66
83.00 663.29
84.00 151.28
85.00 250.94
86.00 15.05
91.00 18.39
95.00 79.55
96.00 91.14
97.00 417.21
98.00 83.25
99.00 57.58
100.00 4.94
109.00 39.32
110.00 42.38
111.00 243.41
112.00 55.89
113.00 29.70
114.00 0.06
123.00 2.24
124.00 25.92
125.00 120.77
126.00 35.83
127.00 17.58
128.00 3.09
131.00 5.19
137.00 14.62
138.00 18.14
139.00 59.19
140.00 40.05
141.00 17.26
152.00 15.45
153.00 42.00
154.00 23.55
155.00 7.96
165.00 0.01
166.00 12.45
167.00 29.47
168.00 0.76
180.00 11.13
181.00 17.60
182.00 18.34
183.00 5.91
195.00 10.62
208.00 2.19
209.00 9.59
210.00 19.69
217.00 2.94
222.00 10.62
223.00 17.55
236.00 6.28
237.00 6.01
238.00 3.63
250.00 0.93
251.00 6.54
266.00 10.76
280.00 13.53
293.00 0.69
294.00 5.74
321.00 0.55
420.00 3.01
Name: 3-Ethyl-3-methylheptadecane
Formula:
MW:
CAS#:
Comments: in-silico spectrum 8
Num peaks: 71
26.00 0.40
27.00 44.88
28.00 12.06
29.00 105.23
39.00 45.69
40.00 8.56
41.00 302.91
42.00 78.11
43.00 739.96
44.00 20.98
53.00 16.05
54.00 10.17
55.00 190.44
56.00 169.74
57.00 864.60
58.00 40.03
65.00 0.92
68.00 8.11
69.00 101.60
70.00 128.01
71.00 576.01
72.00 29.46
83.00 35.45
84.00 81.26
85.00 389.76
86.00 24.31
97.00 36.66
98.00 35.62
99.00 109.48
100.00 9.17
111.00 17.71
112.00 33.00
113.00 74.98
114.00 5.98
125.00 5.94
126.00 26.16
127.00 57.28
128.00 4.92
140.00 18.68
141.00 42.39
142.00 4.69
154.00 16.84
155.00 35.74
156.00 4.16
167.00 0.57
168.00 13.23
169.00 21.71
170.00 1.28
182.00 10.22
183.00 22.79
184.00 3.24
197.00 10.12
210.00 9.41
211.00 14.58
224.00 5.28
225.00 9.82
226.00 2.71
238.00 2.92
239.00 12.20
240.00 0.26
253.00 4.54
266.00 0.75
267.00 4.47
268.00 0.14
280.00 2.71
281.00 9.75
282.00 0.90
295.00 4.03
296.00 2.19
309.00 5.61
324.00 1.20
Name: 5-Ethyl-5-methylheptadecane
Formula:
MW:
CAS#:
Comments: in-silico spectrum 9
Num peaks: 71
26.00 0.36
27.00 44.81
28.00 11.90
29.00 104.89
39.00 45.43
40.00 8.41
41.00 300.76
42.00 77.59
43.00 739.02
44.00 20.90
53.00 15.78
54.00 9.75
55.00 186.36
56.00 168.63
57.00 863.51
58.00 40.00
65.00 0.79
68.00 7.29
69.00 98.28
70.00 127.19
71.00 575.74
72.00 29.45
83.00 31.22
84.00 80.67
85.00 389.54
86.00 24.29
97.00 33.90
98.00 35.15
99.00 109.28
100.00 9.18
111.00 16.02
112.00 32.67
113.00 74.85
114.00 6.00
125.00 5.03
126.00 25.94
127.00 57.23
128.00 4.91
140.00 18.35
141.00 42.26
142.00 4.69
154.00 16.67
155.00 35.73
156.00 4.20
167.00 0.28
168.00 13.02
169.00 21.61
170.00 1.28
182.00 10.08
183.00 22.73
184.00 3.24
197.00 10.07
210.00 9.16
211.00 14.50
224.00 5.06
225.00 9.70
226.00 2.69
238.00 2.79
239.00 12.18
240.00 0.29
253.00 4.45
266.00 0.59
267.00 4.37
268.00 0.13
280.00 2.50
281.00 9.64
282.00 0.91
295.00 3.83
296.00 2.14
309.00 5.55
324.00 1.21
Name: Tetracosane, 11-decyl-
Formula:
MW:
CAS#:
Comments: in-silico spectrum 10
Num peaks: 113
28.00 4.03
29.00 47.48
39.00 22.43
40.00 5.88
41.00 299.52
42.00 75.48
43.00 720.20
44.00 20.78
53.00 13.10
54.00 19.49
55.00 275.52
56.00 177.52
57.00 932.53
58.00 43.76
65.00 0.68
67.00 30.73
68.00 27.06
69.00 172.55
70.00 125.12
71.00 638.77
72.00 32.90
81.00 9.66
82.00 24.37
83.00 132.90
84.00 71.89
85.00 437.35
86.00 28.38
91.00 2.52
96.00 24.91
97.00 115.76
98.00 49.47
99.00 155.78
100.00 13.79
110.00 8.30
111.00 63.43
112.00 38.65
113.00 110.64
114.00 9.82
124.00 5.35
125.00 34.98
126.00 30.50
127.00 81.10
128.00 6.70
138.00 0.81
139.00 15.15
140.00 27.58
141.00 62.66
142.00 6.88
152.00 1.78
153.00 9.75
154.00 25.14
155.00 52.83
156.00 6.31
166.00 0.87
167.00 7.35
168.00 45.40
169.00 46.63
170.00 4.51
181.00 2.07
182.00 16.45
183.00 35.36
184.00 5.97
195.00 1.31
196.00 30.83
197.00 33.23
198.00 4.48
210.00 20.42
211.00 30.92
212.00 0.71
223.00 0.34
224.00 40.70
225.00 36.02
226.00 8.60
238.00 20.17
239.00 38.77
240.00 5.79
252.00 23.80
253.00 28.93
254.00 2.78
266.00 18.40
267.00 26.35
268.00 5.64
280.00 22.00
281.00 29.93
282.00 5.28
294.00 23.29
295.00 36.98
296.00 12.08
308.00 14.53
309.00 25.31
310.00 4.82
322.00 7.89
323.00 18.34
324.00 6.86
336.00 13.37
337.00 19.24
338.00 5.61
350.00 9.90
351.00 24.36
352.00 6.02
364.00 4.03
365.00 8.77
366.00 1.05
379.00 4.25
392.00 2.11
393.00 7.64
394.00 1.81
421.00 5.84
435.00 0.05
449.00 3.81
450.00 0.48
463.00 4.45
477.00 3.32
Name: Nonacosane, 2-methyl-
Formula:
MW:
CAS#:
Comments: in-silico spectrum 11
Num peaks: 95
27.00 10.36
28.00 6.98
29.00 69.55
39.00 31.07
40.00 6.50
41.00 299.86
42.00 76.64
43.00 729.72
44.00 20.65
53.00 13.63
54.00 16.01
55.00 240.14
56.00 174.37
57.00 909.62
58.00 42.56
65.00 0.40
67.00 17.29
68.00 19.25
69.00 142.92
70.00 125.84
71.00 617.23
72.00 31.68
82.00 1.72
83.00 92.46
84.00 75.27
85.00 420.71
86.00 26.81
96.00 12.49
97.00 83.73
98.00 44.19
99.00 138.66
100.00 12.10
110.00 0.63
111.00 44.92
112.00 36.71
113.00 97.40
114.00 8.33
124.00 1.50
125.00 23.33
126.00 28.86
127.00 72.34
128.00 5.79
139.00 9.07
140.00 24.18
141.00 55.06
142.00 6.06
153.00 4.31
154.00 22.09
155.00 46.48
156.00 5.55
167.00 4.65
168.00 33.24
169.00 37.45
170.00 3.36
182.00 14.29
183.00 30.82
184.00 5.04
196.00 18.62
197.00 24.60
198.00 2.79
210.00 16.39
211.00 24.94
224.00 27.32
225.00 26.21
226.00 6.42
238.00 13.66
239.00 28.81
240.00 3.71
252.00 14.59
253.00 19.76
254.00 0.78
266.00 11.70
267.00 18.08
268.00 3.60
280.00 14.62
281.00 22.33
282.00 3.70
294.00 12.26
295.00 24.47
296.00 8.33
308.00 7.97
309.00 17.90
310.00 3.03
322.00 1.33
323.00 10.46
324.00 4.80
336.00 4.88
337.00 9.90
338.00 2.56
350.00 3.35
351.00 14.14
352.00 2.18
365.00 0.30
393.00 1.03
421.00 2.09
Name: Heptane, 2,4-dimethyl-
Formula:
MW:
CAS#:
Comments: in-silico spectrum 12
Num peaks: 35
15.00 15.55
26.00 7.52
27.00 207.46
28.00 37.64
29.00 284.23
30.00 6.33
38.00 3.42
39.00 119.55
40.00 16.02
41.00 375.03
42.00 102.73
43.00 809.65
44.00 21.19
50.00 0.73
51.00 11.30
52.00 3.75
53.00 26.24
54.00 0.69
55.00 75.60
56.00 177.57
57.00 675.71
58.00 28.60
65.00 2.25
70.00 156.51
71.00 379.72
72.00 17.83
84.00 127.76
85.00 244.12
86.00 13.53
98.00 9.48
112.00 27.22
115.00 1.65
126.00 19.77
131.00 19.87
140.00 2.11
Name: 3,3-Diethylheptadecane
Formula:
MW:
CAS#:
Comments: in-silico spectrum 13
Num peaks: 78
26.00 0.21
27.00 39.82
28.00 11.50
29.00 100.41
39.00 43.89
40.00 8.44
41.00 305.70
42.00 78.66
43.00 739.08
44.00 21.02
53.00 16.04
54.00 11.77
55.00 204.52
56.00 172.01
57.00 871.86
58.00 40.40
65.00 1.04
67.00 4.13
68.00 11.15
69.00 113.15
70.00 128.79
71.00 581.67
72.00 29.76
83.00 51.14
84.00 81.26
85.00 394.11
86.00 24.69
97.00 48.24
98.00 37.60
99.00 113.93
100.00 9.61
111.00 24.51
112.00 33.98
113.00 78.35
114.00 6.32
125.00 10.01
126.00 26.88
127.00 59.47
128.00 5.11
139.00 2.06
140.00 19.95
141.00 44.40
142.00 4.89
154.00 17.86
155.00 37.33
156.00 4.33
167.00 1.60
168.00 16.45
169.00 24.11
170.00 1.59
182.00 11.06
183.00 24.06
184.00 3.53
196.00 1.91
197.00 12.28
198.00 0.30
210.00 10.82
211.00 16.21
224.00 8.87
225.00 12.39
226.00 3.30
238.00 4.72
239.00 14.62
240.00 0.72
252.00 1.81
253.00 6.89
266.00 2.65
267.00 6.65
268.00 0.68
280.00 4.82
281.00 11.76
282.00 1.30
295.00 7.37
296.00 3.17
309.00 7.51
310.00 0.31
324.00 1.67
351.00 0.04
Name: Octane, 3,5-dimethyl-
Formula:
MW:
CAS#:
Comments: in-silico spectrum 14
Num peaks: 37
15.00 8.46
26.00 6.36
27.00 177.16
28.00 33.23
29.00 251.36
30.00 5.25
38.00 0.34
39.00 106.15
40.00 14.58
41.00 364.30
42.00 99.18
43.00 793.91
44.00 20.92
51.00 8.43
52.00 2.14
53.00 24.39
54.00 3.77
55.00 104.51
56.00 177.69
57.00 707.71
58.00 30.67
65.00 2.04
69.00 24.05
70.00 152.06
71.00 412.91
72.00 19.77
84.00 120.02
85.00 269.01
86.00 15.37
98.00 15.32
99.00 0.29
112.00 29.01
126.00 21.34
131.00 12.32
140.00 5.98
154.00 1.71
182.00 0.86
Name: Decane, 2,4,6-trimethyl-
Formula:
MW:
CAS#:
Comments: in-silico spectrum 15
Num peaks: 43
26.00 4.68
27.00 131.99
28.00 26.67
29.00 201.80
30.00 3.34
39.00 86.46
40.00 13.43
41.00 349.71
42.00 93.26
43.00 774.01
44.00 21.26
51.00 4.87
52.00 0.35
53.00 23.04
54.00 7.22
55.00 148.57
56.00 178.53
57.00 760.10
58.00 33.76
65.00 2.44
69.00 63.40
70.00 146.38
71.00 466.24
72.00 22.91
84.00 108.48
85.00 308.79
86.00 18.29
98.00 23.78
99.00 37.82
100.00 2.05
112.00 31.20
113.00 18.32
126.00 23.53
127.00 18.20
128.00 1.49
131.00 2.59
140.00 11.42
141.00 11.90
142.00 1.28
154.00 7.45
155.00 7.40
182.00 4.44
183.00 3.54
Name: Eicosane, 2-cyclohexyl-
Formula:
MW:
CAS#:
Comments: in-silico spectrum 16
Num peaks: 98
26.00 5.75
27.00 71.16
28.00 29.12
29.00 158.41
30.00 1.16
39.00 78.85
40.00 23.30
41.00 558.45
42.00 117.60
43.00 643.47
44.00 25.65
51.00 3.41
53.00 46.51
54.00 66.75
55.00 753.63
56.00 262.33
57.00 677.57
58.00 29.89
65.00 12.48
66.00 8.25
67.00 212.54
68.00 130.13
69.00 553.63
70.00 199.80
71.00 355.51
72.00 17.97
77.00 14.65
79.00 28.37
80.00 5.35
81.00 114.99
82.00 357.44
83.00 655.85
84.00 142.02
85.00 233.27
86.00 14.13
91.00 21.01
93.00 2.35
95.00 88.51
96.00 92.70
97.00 413.38
98.00 80.58
99.00 56.97
100.00 4.89
109.00 53.05
110.00 45.60
111.00 241.19
112.00 52.48
113.00 30.13
114.00 0.23
123.00 15.35
124.00 27.89
125.00 120.24
126.00 33.65
127.00 17.54
128.00 3.85
131.00 6.70
137.00 23.03
138.00 19.48
139.00 59.04
140.00 38.83
141.00 17.27
149.00 11.54
151.00 1.91
152.00 16.73
153.00 43.19
154.00 23.00
155.00 8.36
165.00 2.89
166.00 11.86
167.00 29.07
168.00 3.94
180.00 12.09
181.00 16.95
182.00 16.95
183.00 5.65
195.00 10.81
208.00 2.67
209.00 9.51
210.00 18.93
217.00 17.05
218.00 2.95
222.00 11.26
223.00 18.46
224.00 1.38
236.00 6.50
237.00 6.03
238.00 4.91
250.00 0.71
251.00 6.35
257.00 1.96
266.00 11.82
280.00 14.57
292.00 0.41
293.00 1.97
294.00 8.24
321.00 0.86
412.00 10.22
420.00 3.65
Name: Dodecane, 6-cyclohexyl-
Formula:
MW:
CAS#:
Comments: in-silico spectrum 17
Num peaks: 76
26.00 8.40
27.00 119.76
28.00 38.66
29.00 214.94
30.00 3.86
39.00 103.11
40.00 25.57
41.00 597.14
42.00 129.68
43.00 667.36
44.00 25.20
51.00 7.45
53.00 50.60
54.00 69.03
55.00 755.33
56.00 274.58
57.00 627.08
58.00 26.96
65.00 13.19
66.00 7.49
67.00 209.61
68.00 130.24
69.00 551.60
70.00 215.27
71.00 296.94
72.00 14.95
77.00 13.44
79.00 10.58
81.00 93.02
82.00 360.66
83.00 652.76
84.00 160.96
85.00 189.28
86.00 10.66
91.00 14.50
95.00 64.12
96.00 78.52
97.00 397.79
98.00 77.34
99.00 18.54
100.00 1.17
109.00 22.08
110.00 33.97
111.00 233.59
112.00 54.11
115.00 1.27
124.00 21.73
125.00 112.62
126.00 33.35
128.00 1.36
131.00 18.75
137.00 6.92
138.00 15.43
139.00 56.29
140.00 36.74
141.00 0.67
152.00 13.01
153.00 38.47
154.00 19.09
166.00 12.46
167.00 29.09
180.00 9.17
181.00 15.25
182.00 15.26
195.00 8.69
208.00 0.31
209.00 7.56
210.00 14.62
222.00 6.48
223.00 12.73
236.00 3.89
237.00 2.80
251.00 4.84
266.00 0.44
280.00 2.72
420.00 0.03
Name: Dodecane
Formula:
MW:
CAS#:
Comments: in-silico spectrum 18
Num peaks: 41
26.00 4.64
27.00 147.93
28.00 28.05
29.00 222.45
30.00 4.35
39.00 92.82
40.00 11.25
41.00 358.00
42.00 97.92
43.00 803.73
44.00 20.09
51.00 3.80
53.00 19.81
54.00 7.59
55.00 127.12
56.00 179.55
57.00 768.00
58.00 34.14
65.00 0.12
69.00 40.37
70.00 148.41
71.00 465.35
72.00 22.43
84.00 113.39
85.00 306.32
86.00 17.78
98.00 21.14
99.00 27.22
100.00 1.27
112.00 31.60
113.00 9.37
126.00 23.42
127.00 12.67
131.00 0.57
140.00 9.40
141.00 6.93
142.00 1.05
154.00 5.58
155.00 3.28
182.00 4.39
183.00 1.30
Name: Cyclopentane, (2-decyldodecyl)-
Formula:
MW:
CAS#:
Comments: in-silico spectrum 19
Num peaks: 94
26.00 5.35
27.00 71.01
28.00 28.93
29.00 161.86
30.00 1.31
39.00 79.75
40.00 22.25
41.00 569.77
42.00 122.17
43.00 689.32
44.00 26.22
51.00 1.96
53.00 45.15
54.00 67.84
55.00 753.82
56.00 270.35
57.00 735.83
58.00 32.70
65.00 11.52
66.00 7.88
67.00 208.13
68.00 128.95
69.00 549.74
70.00 205.17
71.00 396.68
72.00 19.99
77.00 11.98
79.00 21.90
80.00 2.13
81.00 108.64
82.00 349.79
83.00 646.84
84.00 145.41
85.00 261.22
86.00 15.86
91.00 19.04
95.00 81.04
96.00 91.34
97.00 409.87
98.00 82.38
99.00 65.85
100.00 5.73
109.00 42.54
110.00 43.30
111.00 238.80
112.00 54.82
113.00 36.41
114.00 0.89
123.00 5.92
124.00 26.36
125.00 119.22
126.00 35.52
127.00 22.47
128.00 3.61
131.00 2.38
137.00 16.05
138.00 18.32
139.00 58.25
140.00 39.86
141.00 20.97
152.00 15.67
153.00 41.81
154.00 24.07
155.00 11.48
165.00 0.48
166.00 11.97
167.00 28.76
168.00 5.89
180.00 11.17
181.00 17.38
182.00 18.39
183.00 8.19
195.00 10.66
208.00 2.46
209.00 9.62
210.00 20.28
217.00 6.28
222.00 11.09
223.00 18.04
224.00 3.40
236.00 6.44
237.00 6.29
238.00 5.97
250.00 1.14
251.00 6.44
266.00 12.69
267.00 0.77
280.00 15.57
281.00 0.11
293.00 1.42
294.00 9.23
295.00 0.47
321.00 1.04
420.00 3.37
Name: Octadecane, 6-methyl-
Formula:
MW:
CAS#:
Comments: in-silico spectrum 20
Num peaks: 54
26.00 1.77
27.00 72.88
28.00 17.25
29.00 139.57
30.00 1.24
39.00 60.03
40.00 9.35
41.00 332.10
42.00 87.74
43.00 763.72
44.00 20.60
53.00 17.55
54.00 13.48
55.00 200.91
56.00 180.05
57.00 846.32
58.00 38.86
65.00 0.90
68.00 10.16
69.00 106.76
70.00 138.30
71.00 547.63
72.00 27.39
83.00 43.54
84.00 94.02
85.00 368.37
86.00 22.56
97.00 33.77
98.00 35.14
99.00 88.44
100.00 7.15
111.00 16.69
112.00 35.17
113.00 57.69
114.00 3.79
125.00 3.47
126.00 27.00
127.00 45.23
128.00 3.14
140.00 18.47
141.00 33.48
142.00 3.65
154.00 15.08
155.00 26.82
156.00 2.65
167.00 0.89
169.00 10.80
182.00 10.24
183.00 17.58
184.00 2.03
210.00 8.13
211.00 7.75
226.00 0.87
281.00 1.67
Name: 5-Methyltricosane
Formula:
MW:
CAS#:
Comments: in-silico spectrum 21
Num peaks: 78
26.00 0.27
27.00 41.12
28.00 12.12
29.00 104.06
39.00 45.38
40.00 7.90
41.00 316.04
42.00 82.28
43.00 743.98
44.00 20.52
53.00 15.56
54.00 15.19
55.00 222.87
56.00 177.25
57.00 875.23
58.00 40.62
65.00 0.71
67.00 9.73
68.00 15.36
69.00 126.95
70.00 131.95
71.00 580.32
72.00 29.43
83.00 71.42
84.00 84.55
85.00 393.12
86.00 24.58
96.00 0.65
97.00 61.03
98.00 39.92
99.00 113.42
100.00 9.62
111.00 32.23
112.00 36.03
113.00 77.46
114.00 6.05
125.00 14.24
126.00 28.03
127.00 58.65
128.00 4.42
139.00 4.69
140.00 21.52
141.00 44.23
142.00 4.82
154.00 18.65
155.00 36.65
156.00 4.11
167.00 3.02
168.00 16.81
169.00 24.25
170.00 1.70
182.00 12.39
183.00 24.20
184.00 3.59
196.00 2.18
197.00 12.19
198.00 0.25
210.00 12.46
211.00 16.44
224.00 9.70
225.00 12.80
226.00 3.73
238.00 5.32
239.00 13.88
240.00 0.31
252.00 1.99
253.00 6.63
266.00 3.54
267.00 6.81
268.00 0.69
280.00 6.09
281.00 12.13
282.00 1.47
295.00 7.78
296.00 3.27
309.00 7.35
310.00 0.54
324.00 1.62
Name: Dodecane, 2,6,11-trimethyl-
Formula:
MW:
CAS#:
Comments: in-silico spectrum 22
Num peaks: 48
26.00 3.41
27.00 102.17
28.00 21.96
29.00 168.59
30.00 2.16
39.00 72.83
40.00 12.17
41.00 334.67
42.00 88.34
43.00 758.56
44.00 21.22
51.00 2.30
53.00 21.21
54.00 8.63
55.00 167.13
56.00 176.31
57.00 791.59
58.00 35.73
65.00 2.29
68.00 2.82
69.00 80.71
70.00 140.62
71.00 500.35
72.00 24.93
83.00 6.99
84.00 99.53
85.00 334.22
86.00 20.15
97.00 1.42
98.00 28.23
99.00 61.94
100.00 4.39
112.00 32.06
113.00 37.45
114.00 1.49
126.00 24.59
127.00 31.25
128.00 2.68
140.00 14.38
141.00 22.32
142.00 2.37
154.00 10.82
155.00 16.83
156.00 1.05
182.00 6.50
183.00 10.02
184.00 0.19
210.00 2.50
Name: 13,17,21-Trimethylpentatriacontane
Formula:
MW:
CAS#:
Comments: in-silico spectrum 23
Num peaks: 123
29.00 5.75
39.00 6.24
40.00 5.67
41.00 273.54
42.00 66.35
43.00 670.90
44.00 21.01
53.00 12.39
54.00 19.99
55.00 297.43
56.00 169.75
57.00 929.33
58.00 43.68
65.00 1.59
67.00 43.67
68.00 33.15
69.00 196.10
70.00 115.40
71.00 650.23
72.00 33.85
79.00 1.99
81.00 35.03
82.00 42.81
83.00 166.89
84.00 60.12
85.00 448.68
86.00 30.06
91.00 9.39
95.00 18.21
96.00 40.85
97.00 147.15
98.00 52.85
99.00 178.10
100.00 15.79
110.00 20.69
111.00 81.70
112.00 38.24
113.00 128.85
114.00 11.89
124.00 11.67
125.00 47.18
126.00 30.47
127.00 93.13
128.00 8.51
138.00 5.38
139.00 21.58
140.00 30.29
141.00 72.62
142.00 7.85
152.00 5.98
153.00 16.90
154.00 28.25
155.00 61.41
156.00 7.13
166.00 1.99
167.00 10.11
168.00 63.48
169.00 59.69
170.00 6.03
181.00 4.59
182.00 17.57
183.00 41.02
184.00 6.97
195.00 4.77
196.00 49.36
197.00 45.97
198.00 6.66
209.00 2.00
210.00 24.11
211.00 39.07
212.00 1.35
222.00 3.52
223.00 7.07
224.00 60.44
225.00 50.30
226.00 11.10
237.00 0.86
238.00 28.93
239.00 54.25
240.00 9.14
250.00 0.29
252.00 38.13
253.00 43.08
254.00 5.46
266.00 27.37
267.00 38.29
268.00 8.17
280.00 31.73
281.00 40.49
282.00 7.09
294.00 39.12
295.00 55.40
296.00 17.31
308.00 24.28
309.00 36.47
310.00 7.05
322.00 18.06
323.00 30.62
324.00 9.93
336.00 26.94
337.00 34.20
338.00 10.03
350.00 20.50
351.00 40.98
352.00 12.43
364.00 13.40
365.00 21.86
366.00 5.20
378.00 2.81
379.00 15.69
392.00 8.86
393.00 18.42
394.00 6.41
407.00 5.03
421.00 11.67
435.00 6.10
449.00 12.63
450.00 5.94
463.00 11.90
464.00 1.49
477.00 12.16
505.00 7.77
519.00 5.08
Name: Tridecane, 3-cyclohexyl-
Formula:
MW:
CAS#:
Comments: in-silico spectrum 24
Num peaks: 77
26.00 8.24
27.00 116.15
28.00 37.95
29.00 210.35
30.00 3.65
39.00 101.18
40.00 25.44
41.00 592.82
42.00 128.28
43.00 659.81
44.00 25.09
51.00 7.28
53.00 50.35
54.00 68.82
55.00 755.23
56.00 272.67
57.00 623.48
58.00 26.83
65.00 13.21
66.00 7.61
67.00 210.39
68.00 130.42
69.00 552.18
70.00 213.39
71.00 296.07
72.00 14.91
77.00 13.70
79.00 12.41
81.00 95.22
82.00 361.59
83.00 654.28
84.00 159.15
85.00 189.01
86.00 10.71
91.00 15.16
95.00 66.64
96.00 79.72
97.00 399.46
98.00 77.37
99.00 20.27
100.00 1.36
109.00 25.33
110.00 35.00
111.00 234.50
112.00 53.69
113.00 0.98
115.00 1.21
124.00 22.29
125.00 113.36
126.00 33.15
128.00 1.55
131.00 18.30
137.00 8.79
138.00 15.83
139.00 56.62
140.00 36.77
141.00 1.43
152.00 13.37
153.00 38.96
154.00 19.25
166.00 12.44
167.00 29.17
180.00 9.51
181.00 15.40
182.00 15.26
195.00 8.92
208.00 0.53
209.00 7.75
210.00 14.81
222.00 6.91
223.00 13.26
236.00 4.13
237.00 3.07
251.00 5.02
266.00 1.23
280.00 3.54
420.00 0.36
Name: 13-Methylheptacosane
Formula:
MW:
CAS#:
Comments: in-silico spectrum 25
Num peaks: 91
27.00 17.34
28.00 8.35
29.00 77.65
39.00 34.59
40.00 6.92
41.00 306.03
42.00 78.55
43.00 731.43
44.00 20.64
53.00 14.32
54.00 16.64
55.00 242.66
56.00 176.20
57.00 899.76
58.00 42.03
65.00 0.65
67.00 17.99
68.00 19.85
69.00 144.62
70.00 127.99
71.00 606.53
72.00 31.04
82.00 4.42
83.00 95.23
84.00 78.04
85.00 412.92
86.00 26.24
96.00 11.08
97.00 83.37
98.00 43.88
99.00 132.67
100.00 11.52
111.00 44.95
112.00 36.91
113.00 92.62
114.00 7.78
124.00 0.89
125.00 22.88
126.00 28.93
127.00 68.94
128.00 5.47
139.00 8.98
140.00 24.02
141.00 52.57
142.00 5.75
153.00 3.90
154.00 21.47
155.00 44.09
156.00 5.16
167.00 4.76
168.00 29.73
169.00 34.45
170.00 2.99
182.00 14.05
183.00 29.26
184.00 4.73
196.00 15.14
197.00 21.79
198.00 2.17
210.00 15.87
211.00 23.06
224.00 23.70
225.00 23.34
226.00 5.91
238.00 11.98
239.00 25.32
240.00 2.86
252.00 11.91
253.00 16.86
254.00 0.18
266.00 10.16
267.00 15.67
268.00 2.96
280.00 13.08
281.00 20.16
282.00 3.20
294.00 9.71
295.00 21.00
296.00 7.25
308.00 6.26
309.00 15.57
310.00 2.52
323.00 8.01
324.00 4.04
336.00 2.45
337.00 7.09
338.00 1.68
350.00 1.38
351.00 10.84
352.00 0.86
421.00 0.92
Name: 3-Ethyl-3-methylnonadecane
Formula:
MW:
CAS#:
Comments: in-silico spectrum 26
Num peaks: 80
27.00 33.09
28.00 10.26
29.00 92.27
39.00 40.44
40.00 8.09
41.00 298.68
42.00 76.53
43.00 732.78
44.00 20.96
53.00 15.44
54.00 11.24
55.00 202.36
56.00 169.61
57.00 875.55
58.00 40.66
65.00 0.91
67.00 4.02
68.00 10.86
69.00 112.15
70.00 126.27
71.00 587.82
72.00 30.19
83.00 49.92
84.00 78.30
85.00 398.75
86.00 25.08
97.00 49.41
98.00 37.80
99.00 118.86
100.00 10.11
111.00 25.04
112.00 33.61
113.00 82.35
114.00 6.80
125.00 10.79
126.00 26.71
127.00 62.23
128.00 5.40
139.00 2.38
140.00 20.11
141.00 46.48
142.00 5.13
154.00 18.35
155.00 39.34
156.00 4.65
167.00 1.63
168.00 19.71
169.00 26.78
170.00 1.93
182.00 11.18
183.00 25.32
184.00 3.82
196.00 5.20
197.00 14.82
198.00 0.82
210.00 11.28
211.00 17.88
224.00 12.32
225.00 15.05
226.00 3.77
238.00 6.29
239.00 17.80
240.00 1.49
252.00 4.36
253.00 9.61
266.00 4.12
267.00 8.87
268.00 1.24
280.00 6.31
281.00 13.76
282.00 1.74
294.00 0.06
295.00 10.66
296.00 4.16
308.00 0.62
309.00 9.70
310.00 0.79
323.00 1.86
324.00 2.38
351.00 3.14
Name: Decane, 2,6,6-trimethyl-
Formula:
MW:
CAS#:
Comments: in-silico spectrum 27
Num peaks: 44
26.00 3.61
27.00 108.50
28.00 22.19
29.00 172.36
30.00 1.83
39.00 74.16
40.00 12.98
41.00 321.73
42.00 84.17
43.00 753.59
44.00 21.65
51.00 3.86
52.00 0.68
53.00 21.86
54.00 3.31
55.00 132.09
56.00 168.30
57.00 775.16
58.00 34.80
65.00 2.56
69.00 53.23
70.00 136.65
71.00 490.94
72.00 24.64
84.00 96.65
85.00 327.29
86.00 19.69
98.00 23.26
99.00 55.35
100.00 3.67
112.00 28.77
113.00 32.95
114.00 1.22
126.00 22.53
127.00 28.40
128.00 3.01
140.00 11.08
141.00 19.34
142.00 2.02
154.00 8.57
155.00 15.01
156.00 1.03
182.00 4.02
183.00 7.80
Name: 2-Methyltetracosane
Formula:
MW:
CAS#:
Comments: in-silico spectrum 28
Num peaks: 80
26.00 0.07
27.00 39.01
28.00 11.58
29.00 101.78
39.00 44.24
40.00 7.70
41.00 314.14
42.00 81.65
43.00 748.65
44.00 20.65
53.00 15.20
54.00 14.54
55.00 218.97
56.00 176.69
57.00 884.62
58.00 41.09
65.00 0.47
67.00 7.94
68.00 14.26
69.00 123.45
70.00 131.37
71.00 588.55
72.00 29.89
83.00 65.81
84.00 83.56
85.00 398.77
86.00 24.91
96.00 0.32
97.00 58.23
98.00 39.79
99.00 116.09
100.00 9.86
111.00 30.42
112.00 35.87
113.00 79.57
114.00 6.32
125.00 13.35
126.00 27.96
127.00 60.24
128.00 4.54
139.00 4.06
140.00 21.32
141.00 45.24
142.00 4.95
154.00 18.76
155.00 37.72
156.00 4.34
167.00 2.61
168.00 17.81
169.00 25.33
170.00 1.83
182.00 12.38
183.00 24.87
184.00 3.74
196.00 3.11
197.00 13.19
198.00 0.49
210.00 12.39
211.00 17.10
224.00 10.62
225.00 13.68
226.00 3.90
238.00 5.75
239.00 15.15
240.00 0.65
252.00 2.73
253.00 7.55
266.00 3.84
267.00 7.54
268.00 0.93
280.00 6.31
281.00 12.79
282.00 1.65
295.00 8.69
296.00 3.60
309.00 8.08
310.00 0.69
323.00 0.02
324.00 1.91
351.00 0.46
Name: Undecane, 5,7-dimethyl-
Formula:
MW:
CAS#:
Comments: in-silico spectrum 29
Num peaks: 42
26.00 4.32
27.00 130.04
28.00 25.90
29.00 200.82
30.00 3.38
39.00 85.21
40.00 12.16
41.00 348.91
42.00 93.80
43.00 782.88
44.00 20.85
51.00 3.73
53.00 21.22
54.00 7.73
55.00 144.73
56.00 178.41
57.00 773.65
58.00 34.54
65.00 1.47
69.00 58.53
70.00 145.59
71.00 476.58
72.00 23.33
84.00 107.95
85.00 315.76
86.00 18.68
98.00 23.98
99.00 40.55
100.00 2.41
112.00 31.57
113.00 20.21
126.00 23.82
127.00 19.73
128.00 1.12
140.00 11.43
141.00 12.92
142.00 1.53
154.00 7.64
155.00 8.46
156.00 0.06
182.00 5.00
183.00 4.51
Name: Octane, 2,6,6-trimethyl-
Formula:
MW:
CAS#:
Comments: in-silico spectrum 30
Num peaks: 44
15.00 0.95
26.00 4.68
27.00 130.20
28.00 25.83
29.00 195.68
30.00 2.70
39.00 84.07
40.00 14.50
41.00 330.63
42.00 86.86
43.00 758.86
44.00 21.90
51.00 6.29
52.00 1.92
53.00 23.96
54.00 1.57
55.00 117.39
56.00 169.01
57.00 745.33
58.00 32.99
65.00 3.14
69.00 40.84
70.00 140.49
71.00 461.78
72.00 23.04
84.00 102.70
85.00 306.00
86.00 18.22
98.00 19.67
99.00 37.10
100.00 1.82
112.00 27.74
113.00 18.68
126.00 21.55
127.00 18.58
128.00 2.38
131.00 5.21
140.00 8.91
141.00 11.63
142.00 1.16
154.00 6.02
155.00 7.94
182.00 2.14
183.00 2.77
Name: 3,3-Diethylpentadecane
Formula:
MW:
CAS#:
Comments: in-silico spectrum 31
Num peaks: 68
26.00 0.75
27.00 51.83
28.00 13.32
29.00 113.58
39.00 49.22
40.00 8.92
41.00 309.74
42.00 80.21
43.00 746.36
44.00 21.02
53.00 16.63
54.00 10.62
55.00 191.79
56.00 172.01
57.00 860.67
58.00 39.74
65.00 1.04
68.00 8.23
69.00 101.92
70.00 130.48
71.00 569.70
72.00 29.01
83.00 35.77
84.00 84.21
85.00 384.99
86.00 23.92
97.00 34.84
98.00 35.31
99.00 104.37
100.00 8.66
111.00 16.79
112.00 33.33
113.00 70.86
114.00 5.49
125.00 4.93
126.00 26.30
127.00 54.44
128.00 4.62
140.00 18.46
141.00 40.24
142.00 4.45
154.00 16.31
155.00 33.67
156.00 3.83
167.00 0.48
168.00 9.83
169.00 18.94
170.00 0.93
182.00 10.06
183.00 21.49
184.00 2.94
197.00 7.49
210.00 8.89
211.00 12.84
224.00 1.65
225.00 7.03
226.00 2.20
238.00 1.26
239.00 8.91
253.00 1.71
267.00 2.15
280.00 1.14
281.00 7.66
282.00 0.45
295.00 0.57
296.00 1.15
309.00 3.35
324.00 0.47
Name: Hexacontane
Formula:
MW:
CAS#:
Comments: in-silico spectrum 32
Num peaks: 143
40.00 3.79
41.00 238.93
42.00 57.03
43.00 622.59
44.00 20.07
53.00 8.90
54.00 19.88
55.00 295.99
56.00 158.06
57.00 921.46
58.00 43.55
65.00 0.83
67.00 48.02
68.00 35.50
69.00 200.41
70.00 102.42
71.00 658.40
72.00 34.38
73.00 2.84
79.00 13.69
80.00 2.12
81.00 50.63
82.00 49.02
83.00 177.74
84.00 47.67
85.00 457.76
86.00 31.38
91.00 12.77
92.00 0.28
93.00 4.09
95.00 36.44
96.00 51.67
97.00 162.77
98.00 54.89
99.00 197.14
100.00 17.55
105.00 1.22
109.00 21.58
110.00 28.87
111.00 90.91
112.00 37.81
113.00 143.77
114.00 13.21
123.00 8.51
124.00 15.18
125.00 54.44
126.00 29.99
127.00 103.53
128.00 9.20
138.00 8.20
139.00 25.44
140.00 31.82
141.00 80.82
142.00 8.55
152.00 8.27
153.00 21.16
154.00 30.36
155.00 68.50
156.00 7.54
163.00 0.04
166.00 2.86
167.00 11.96
168.00 78.87
169.00 71.16
170.00 7.39
179.00 0.15
180.00 1.04
181.00 7.03
182.00 18.44
183.00 45.63
184.00 7.65
195.00 7.92
196.00 65.90
197.00 57.66
198.00 8.83
204.00 0.80
208.00 1.14
209.00 4.04
210.00 26.99
211.00 46.01
212.00 1.79
222.00 7.63
223.00 12.35
224.00 78.39
225.00 63.21
226.00 13.21
233.00 0.23
236.00 2.11
237.00 4.26
238.00 36.22
239.00 67.92
240.00 11.62
250.00 3.13
251.00 0.55
252.00 50.51
253.00 55.09
254.00 7.60
266.00 35.20
267.00 48.48
268.00 10.10
280.00 40.05
281.00 49.39
282.00 8.57
292.00 0.03
293.00 2.12
294.00 52.95
295.00 71.13
296.00 21.29
308.00 32.74
309.00 46.24
310.00 9.05
321.00 1.57
322.00 26.48
323.00 41.24
324.00 12.75
336.00 39.02
337.00 47.37
338.00 13.44
350.00 29.77
351.00 55.22
352.00 17.43
364.00 21.60
365.00 33.39
366.00 9.22
378.00 10.26
379.00 26.20
380.00 5.15
392.00 14.92
393.00 27.95
394.00 10.41
400.00 2.91
406.00 0.92
407.00 11.30
420.00 3.98
421.00 16.96
435.00 11.99
449.00 20.37
450.00 10.75
463.00 19.14
464.00 5.76
477.00 20.15
505.00 20.28
519.00 13.18
Name: Undecane, 3-ethyl-
Formula:
MW:
CAS#:
Comments: in-silico spectrum 33
Num peaks: 42
26.00 4.31
27.00 132.68
28.00 26.39
29.00 205.64
30.00 3.63
39.00 86.88
40.00 11.73
41.00 357.97
42.00 96.61
43.00 795.65
44.00 20.70
51.00 3.19
53.00 20.79
54.00 9.41
55.00 153.49
56.00 182.34
57.00 784.53
58.00 35.05
65.00 1.00
69.00 63.73
70.00 148.47
71.00 481.55
72.00 23.51
84.00 110.70
85.00 318.73
86.00 18.80
98.00 25.07
99.00 40.17
100.00 2.44
112.00 32.77
113.00 19.56
126.00 24.54
127.00 19.37
128.00 0.75
140.00 11.93
141.00 12.66
142.00 1.51
154.00 7.92
155.00 8.10
156.00 0.07
182.00 5.69
183.00 4.64
Name: Tridecane, 6-cyclohexyl-
Formula:
MW:
CAS#:
Comments: in-silico spectrum 34
Num peaks: 77
26.00 8.09
27.00 113.65
28.00 37.63
29.00 208.50
30.00 3.52
39.00 100.45
40.00 25.39
41.00 597.09
42.00 129.00
43.00 665.80
44.00 25.33
51.00 6.89
53.00 50.43
54.00 69.73
55.00 764.65
56.00 275.01
57.00 634.84
58.00 27.38
65.00 13.18
66.00 7.81
67.00 213.29
68.00 132.17
69.00 559.15
70.00 214.73
71.00 304.03
72.00 15.32
77.00 13.68
79.00 13.49
81.00 97.85
82.00 366.19
83.00 662.96
84.00 159.63
85.00 194.51
86.00 11.07
91.00 15.64
95.00 69.08
96.00 81.90
97.00 405.88
98.00 78.65
99.00 23.43
100.00 1.67
109.00 27.55
110.00 36.21
111.00 238.13
112.00 54.33
113.00 3.32
115.00 0.57
124.00 22.93
125.00 115.44
126.00 33.61
128.00 1.65
131.00 17.24
137.00 9.89
138.00 16.28
139.00 57.54
140.00 37.37
141.00 2.69
152.00 13.74
153.00 39.72
154.00 19.77
166.00 12.62
167.00 29.52
180.00 9.85
181.00 15.87
182.00 15.69
195.00 9.23
208.00 0.77
209.00 8.08
210.00 15.40
222.00 7.47
223.00 13.94
236.00 4.48
237.00 3.51
251.00 5.33
266.00 2.20
280.00 4.56
420.00 0.76
Name: Nonadecane, 3-methyl-
Formula:
MW:
CAS#:
Comments: in-silico spectrum 35
Num peaks: 61
26.00 1.36
27.00 64.28
28.00 15.78
29.00 129.74
30.00 0.87
39.00 55.88
40.00 8.88
41.00 325.85
42.00 85.83
43.00 757.52
44.00 20.52
53.00 16.83
54.00 13.55
55.00 203.11
56.00 178.37
57.00 853.10
58.00 39.31
65.00 0.77
67.00 1.32
68.00 10.81
69.00 109.26
70.00 135.92
71.00 556.20
72.00 27.93
83.00 47.20
84.00 90.95
85.00 374.86
86.00 23.07
97.00 38.66
98.00 36.05
99.00 95.01
100.00 7.80
111.00 19.44
112.00 35.16
113.00 62.95
114.00 4.40
125.00 5.59
126.00 27.10
127.00 48.83
128.00 3.45
139.00 0.38
140.00 19.07
141.00 36.29
142.00 3.96
154.00 15.91
155.00 29.47
156.00 3.07
167.00 1.27
168.00 4.28
169.00 14.38
170.00 0.43
182.00 10.70
183.00 19.33
184.00 2.45
197.00 3.00
210.00 9.12
211.00 10.04
225.00 2.56
226.00 1.63
239.00 2.81
281.00 4.39
Name: Nonane, 3,7-dimethyl-
Formula:
MW:
CAS#:
Comments: in-silico spectrum 36
Num peaks: 43
26.00 4.80
27.00 141.25
28.00 27.84
29.00 213.94
30.00 3.81
39.00 90.69
40.00 13.07
41.00 359.06
42.00 96.39
43.00 797.79
44.00 21.37
51.00 4.77
52.00 0.22
53.00 22.52
54.00 7.08
55.00 142.18
56.00 181.50
57.00 773.18
58.00 34.25
65.00 1.68
69.00 55.10
70.00 149.68
71.00 471.61
72.00 23.08
84.00 112.22
85.00 311.46
86.00 18.28
98.00 22.84
99.00 33.22
100.00 1.63
112.00 31.62
113.00 14.42
126.00 23.76
127.00 15.84
128.00 0.90
131.00 2.38
140.00 10.62
141.00 9.79
142.00 1.19
154.00 6.58
155.00 5.52
182.00 4.21
183.00 2.43
Name: Undecane, 2,7-dimethyl-
Formula:
MW:
CAS#:
Comments: in-silico spectrum 37
Num peaks: 43
26.00 4.01
27.00 125.25
28.00 24.59
29.00 194.39
30.00 2.97
39.00 82.18
40.00 11.78
41.00 339.05
42.00 90.88
43.00 779.79
44.00 20.86
51.00 3.47
53.00 20.43
54.00 5.76
55.00 131.55
56.00 174.03
57.00 777.66
58.00 34.81
65.00 1.21
69.00 48.22
70.00 142.03
71.00 483.44
72.00 23.74
84.00 104.24
85.00 320.62
86.00 18.95
98.00 22.76
99.00 43.94
100.00 2.73
112.00 30.32
113.00 23.16
114.00 0.20
126.00 23.12
127.00 21.89
128.00 1.40
140.00 10.55
141.00 14.25
142.00 1.69
154.00 7.40
155.00 10.11
156.00 0.46
182.00 4.47
183.00 5.23
Name: Octane, 2,3,3-trimethyl-
Formula:
MW:
CAS#:
Comments: in-silico spectrum 38
Num peaks: 44
15.00 0.29
26.00 4.67
27.00 132.10
28.00 26.11
29.00 199.39
30.00 2.87
39.00 85.31
40.00 14.01
41.00 337.43
42.00 89.10
43.00 770.78
44.00 21.81
51.00 5.81
52.00 1.49
53.00 23.44
54.00 2.86
55.00 122.81
56.00 171.96
57.00 756.20
58.00 33.49
65.00 2.74
69.00 43.45
70.00 142.51
71.00 467.50
72.00 23.20
84.00 104.69
85.00 309.62
86.00 18.37
98.00 20.43
99.00 37.12
100.00 1.88
112.00 28.59
113.00 18.39
126.00 22.11
127.00 18.49
128.00 2.11
131.00 4.07
140.00 9.27
141.00 11.58
142.00 1.23
154.00 6.15
155.00 7.78
182.00 2.65
183.00 2.97
Name: Decane, 5,6-dimethyl-
Formula:
MW:
CAS#:
Comments: in-silico spectrum 39
Num peaks: 43
26.00 4.55
27.00 136.33
28.00 26.88
29.00 208.39
30.00 3.55
39.00 88.24
40.00 12.64
41.00 355.27
42.00 95.31
43.00 796.14
44.00 21.28
51.00 4.27
52.00 0.01
53.00 21.91
54.00 7.06
55.00 141.81
56.00 180.28
57.00 779.19
58.00 34.62
65.00 1.52
69.00 54.87
70.00 148.04
71.00 478.11
72.00 23.40
84.00 110.26
85.00 316.17
86.00 18.57
98.00 23.15
99.00 37.08
100.00 2.03
112.00 31.48
113.00 17.48
126.00 23.76
127.00 17.99
128.00 1.06
131.00 0.92
140.00 10.78
141.00 11.39
142.00 1.37
154.00 6.94
155.00 7.09
182.00 4.45
183.00 3.48
Name: Cycloundecane, 1,1,2-trimethyl-
Formula:
MW:
CAS#:
Comments: in-silico spectrum 40
Num peaks: 69
15.00 8.16
26.00 9.64
27.00 140.24
28.00 40.44
29.00 225.09
30.00 4.28
39.00 107.89
40.00 27.74
41.00 539.58
42.00 118.19
43.00 624.16
44.00 25.23
51.00 12.65
52.00 1.33
53.00 52.05
54.00 52.95
55.00 626.39
56.00 246.81
57.00 545.42
58.00 22.66
65.00 14.79
66.00 4.11
67.00 167.79
68.00 103.85
69.00 456.45
70.00 199.75
71.00 248.93
72.00 12.81
77.00 17.79
79.00 6.00
81.00 66.43
82.00 283.09
83.00 522.32
84.00 151.76
85.00 156.51
86.00 8.68
91.00 11.94
95.00 40.49
96.00 52.40
97.00 309.37
98.00 61.93
109.00 4.76
110.00 22.57
111.00 182.97
112.00 45.67
115.00 9.44
124.00 17.18
125.00 84.79
126.00 28.57
128.00 2.31
129.00 3.21
131.00 30.17
132.00 4.50
138.00 11.16
139.00 42.76
140.00 29.83
152.00 10.14
153.00 29.28
154.00 13.60
165.00 1.68
166.00 8.88
167.00 23.10
180.00 5.34
181.00 7.34
182.00 9.43
195.00 3.34
209.00 1.92
210.00 7.43
223.00 2.28
Name: Heptadecane, 2-methyl-
Formula:
MW:
CAS#:
Comments: in-silico spectrum 41
Num peaks: 50
26.00 2.22
27.00 84.68
28.00 18.73
29.00 152.07
30.00 1.64
39.00 64.90
40.00 9.68
41.00 332.93
42.00 88.45
43.00 770.89
44.00 20.58
53.00 17.83
54.00 11.47
55.00 181.57
56.00 178.40
57.00 835.24
58.00 38.19
65.00 0.73
68.00 5.79
69.00 90.15
70.00 138.89
71.00 536.70
72.00 26.71
83.00 20.88
84.00 96.05
85.00 359.89
86.00 21.81
97.00 15.73
98.00 32.10
99.00 78.93
100.00 6.19
111.00 6.10
112.00 34.02
113.00 50.30
114.00 3.02
126.00 26.08
127.00 40.33
128.00 2.65
140.00 16.49
141.00 29.30
142.00 3.24
154.00 13.25
155.00 23.26
156.00 2.23
169.00 5.59
182.00 8.92
183.00 14.95
184.00 1.41
210.00 5.79
211.00 4.33
Name: Octatriacontane, 3,5-dimethyl-
Formula:
MW:
CAS#:
Comments: in-silico spectrum 42
Num peaks: 122
29.00 5.11
39.00 5.70
40.00 5.08
41.00 269.85
42.00 66.02
43.00 672.25
44.00 20.54
53.00 11.45
54.00 19.63
55.00 289.55
56.00 168.63
57.00 932.57
58.00 43.92
65.00 1.08
67.00 40.43
68.00 31.58
69.00 189.45
70.00 114.26
71.00 653.65
72.00 34.03
81.00 31.93
82.00 37.71
83.00 158.35
84.00 59.39
85.00 451.12
86.00 30.21
91.00 8.38
95.00 15.10
96.00 39.26
97.00 142.03
98.00 52.47
99.00 179.10
100.00 15.90
110.00 19.38
111.00 78.67
112.00 38.26
113.00 129.60
114.00 11.93
124.00 10.74
125.00 45.58
126.00 30.43
127.00 93.81
128.00 8.28
138.00 4.78
139.00 20.81
140.00 30.08
141.00 73.00
142.00 7.92
152.00 5.45
153.00 16.16
154.00 28.32
155.00 61.84
156.00 7.21
166.00 1.91
167.00 9.82
168.00 63.68
169.00 60.18
170.00 6.12
181.00 4.57
182.00 17.76
183.00 41.44
184.00 7.07
195.00 4.68
196.00 49.54
197.00 46.37
198.00 6.82
209.00 1.91
210.00 24.15
211.00 39.37
212.00 1.51
222.00 3.19
223.00 6.63
224.00 60.71
225.00 50.70
226.00 11.23
237.00 0.79
238.00 29.02
239.00 54.69
240.00 9.21
250.00 0.37
252.00 38.26
253.00 43.34
254.00 5.57
266.00 27.41
267.00 38.46
268.00 8.24
280.00 31.77
281.00 40.72
282.00 7.27
294.00 39.07
295.00 55.53
296.00 17.37
308.00 24.39
309.00 36.81
310.00 7.20
322.00 18.13
323.00 30.86
324.00 10.17
336.00 27.14
337.00 34.49
338.00 10.20
350.00 20.69
351.00 41.25
352.00 12.60
364.00 13.48
365.00 22.08
366.00 5.41
378.00 2.94
379.00 15.93
392.00 9.10
393.00 18.71
394.00 6.69
407.00 5.18
421.00 11.88
435.00 6.32
449.00 12.72
450.00 6.11
463.00 12.04
464.00 1.60
477.00 12.28
505.00 7.80
519.00 5.29
Name: Cyclopropane, 1-methyl-1-(1-methylethyl)-2-nonyl-
Formula:
MW:
CAS#:
Comments: in-silico spectrum 43
Num peaks: 82
26.00 7.46
27.00 97.97
28.00 32.88
29.00 179.75
30.00 2.24
39.00 88.38
40.00 25.31
41.00 525.92
42.00 112.62
43.00 624.80
44.00 25.63
51.00 8.33
53.00 48.69
54.00 55.29
55.00 656.65
56.00 245.64
57.00 615.01
58.00 26.33
65.00 14.03
66.00 5.44
67.00 179.43
68.00 109.78
69.00 480.63
70.00 192.87
71.00 313.88
72.00 16.19
77.00 17.51
79.00 19.90
80.00 0.09
81.00 88.80
82.00 297.85
83.00 554.45
84.00 139.77
85.00 203.62
86.00 12.05
91.00 17.57
95.00 63.70
96.00 69.47
97.00 342.21
98.00 68.40
99.00 32.82
100.00 2.30
109.00 31.01
110.00 33.94
111.00 200.79
112.00 46.67
113.00 12.45
115.00 3.65
123.00 0.88
124.00 22.94
125.00 97.42
126.00 30.21
127.00 6.03
128.00 4.14
129.00 1.99
131.00 17.90
132.00 2.03
137.00 11.24
138.00 15.16
139.00 48.05
140.00 33.42
141.00 8.15
152.00 13.55
153.00 34.96
154.00 18.17
155.00 0.23
165.00 3.73
166.00 9.36
167.00 24.64
180.00 8.43
181.00 10.56
182.00 12.42
195.00 6.31
209.00 4.84
210.00 12.68
217.00 0.07
222.00 3.58
223.00 9.18
236.00 1.89
251.00 1.25
266.00 1.35
280.00 3.27
Name: Hexadecane, 8-hexyl-8-pentyl-
Formula:
MW:
CAS#:
Comments: in-silico spectrum 44
Num peaks: 106
27.00 0.12
28.00 5.20
29.00 56.98
39.00 26.16
40.00 6.64
41.00 291.98
42.00 73.47
43.00 721.05
44.00 21.02
53.00 13.75
54.00 15.11
55.00 242.61
56.00 171.91
57.00 916.48
58.00 42.85
65.00 0.76
67.00 19.29
68.00 19.71
69.00 146.20
70.00 123.18
71.00 627.21
72.00 32.43
81.00 0.64
82.00 2.34
83.00 95.98
84.00 71.39
85.00 428.40
86.00 27.59
91.00 0.86
96.00 16.09
97.00 88.82
98.00 44.78
99.00 146.61
100.00 12.87
110.00 4.08
111.00 47.60
112.00 36.13
113.00 103.95
114.00 9.22
124.00 3.47
125.00 25.43
126.00 28.78
127.00 76.84
128.00 6.70
139.00 9.91
140.00 24.56
141.00 58.54
142.00 6.46
152.00 0.41
153.00 5.84
154.00 22.93
155.00 49.77
156.00 6.03
167.00 4.81
168.00 38.37
169.00 41.43
170.00 3.81
182.00 14.30
183.00 32.75
184.00 5.39
196.00 23.82
197.00 28.42
198.00 3.50
210.00 16.97
211.00 27.44
212.00 0.13
224.00 32.62
225.00 30.17
226.00 6.96
238.00 16.05
239.00 33.73
240.00 4.89
252.00 18.51
253.00 23.97
254.00 1.52
266.00 14.03
267.00 21.60
268.00 4.45
280.00 17.02
281.00 25.45
282.00 4.26
294.00 16.25
295.00 29.65
296.00 9.84
308.00 10.53
309.00 21.31
310.00 3.64
322.00 3.98
323.00 14.05
324.00 5.74
336.00 8.60
337.00 14.10
338.00 3.82
350.00 6.29
351.00 19.13
352.00 4.11
364.00 0.05
365.00 3.84
379.00 0.84
392.00 0.09
393.00 4.15
394.00 0.48
421.00 3.69
449.00 0.72
463.00 1.32
477.00 0.70
Name: 4,4-Dipropylheptane
Formula:
MW:
CAS#:
Comments: in-silico spectrum 45
Num peaks: 43
15.00 2.35
26.00 5.08
27.00 148.95
28.00 28.48
29.00 219.91
30.00 3.89
39.00 93.11
40.00 13.39
41.00 348.77
42.00 93.98
43.00 787.21
44.00 21.18
51.00 6.10
52.00 1.30
53.00 22.72
54.00 3.92
55.00 114.74
56.00 175.03
57.00 747.32
58.00 32.94
65.00 1.89
69.00 33.83
70.00 146.39
71.00 453.33
72.00 22.13
84.00 111.09
85.00 298.74
86.00 17.57
98.00 18.87
99.00 24.44
100.00 0.80
112.00 29.30
113.00 7.95
126.00 22.24
127.00 11.57
128.00 0.81
131.00 5.29
140.00 8.16
141.00 6.05
142.00 0.86
154.00 4.61
155.00 2.65
182.00 2.49
Name: 2-methyloctacosane
Formula:
MW:
CAS#:
Comments: in-silico spectrum 46
Num peaks: 90
27.00 16.49
28.00 8.00
29.00 76.59
39.00 33.96
40.00 6.78
41.00 303.85
42.00 77.93
43.00 734.57
44.00 20.69
53.00 14.02
54.00 15.88
55.00 237.23
56.00 175.31
57.00 905.21
58.00 42.29
65.00 0.44
67.00 15.79
68.00 18.49
69.00 139.99
70.00 127.34
71.00 611.55
72.00 31.33
83.00 88.36
84.00 77.25
85.00 416.32
86.00 26.42
96.00 10.15
97.00 79.32
98.00 43.44
99.00 133.97
100.00 11.63
111.00 42.44
112.00 36.65
113.00 93.67
114.00 7.91
124.00 0.67
125.00 21.53
126.00 28.76
127.00 69.80
128.00 5.53
139.00 8.17
140.00 23.68
141.00 53.03
142.00 5.82
153.00 3.32
154.00 21.43
155.00 44.64
156.00 5.30
167.00 4.30
168.00 30.01
169.00 34.90
170.00 3.04
182.00 13.94
183.00 29.58
184.00 4.78
196.00 15.36
197.00 22.20
198.00 2.29
210.00 15.62
211.00 23.31
224.00 23.84
225.00 23.59
226.00 5.91
238.00 12.03
239.00 25.91
240.00 3.05
252.00 12.10
253.00 17.19
254.00 0.24
266.00 10.08
267.00 15.87
268.00 3.04
280.00 12.93
281.00 20.34
282.00 3.27
294.00 9.55
295.00 21.17
296.00 7.34
308.00 6.27
309.00 15.83
310.00 2.55
323.00 8.26
324.00 4.18
336.00 2.56
337.00 7.31
338.00 1.72
350.00 1.53
351.00 11.22
352.00 1.05
421.00 1.03
Name: Cyclohexane, 1,1-dimethyl-2-propyl-
Formula:
MW:
CAS#:
Comments: in-silico spectrum 47
Num peaks: 66
15.00 17.20
26.00 10.94
27.00 169.65
28.00 44.35
29.00 251.53
30.00 5.40
38.00 2.49
39.00 118.56
40.00 28.76
41.00 516.22
42.00 115.14
43.00 603.09
44.00 24.11
50.00 3.38
51.00 16.27
52.00 3.41
53.00 52.27
54.00 44.76
55.00 545.85
56.00 232.07
57.00 472.30
58.00 18.92
65.00 14.95
66.00 1.91
67.00 140.75
68.00 87.59
69.00 394.15
70.00 193.38
71.00 194.11
72.00 9.85
77.00 17.85
81.00 39.82
82.00 238.34
83.00 441.00
84.00 152.08
85.00 117.81
86.00 6.06
91.00 6.74
95.00 14.80
96.00 30.77
97.00 248.25
98.00 50.83
110.00 10.07
111.00 148.02
112.00 40.85
115.00 14.82
124.00 10.95
125.00 64.16
126.00 25.12
128.00 1.37
129.00 5.27
131.00 39.76
132.00 7.26
138.00 6.66
139.00 33.02
140.00 23.98
152.00 6.34
153.00 20.97
154.00 8.61
165.00 0.27
166.00 6.79
167.00 19.03
180.00 1.78
181.00 2.37
182.00 5.46
210.00 1.36
Name: Tricosane
Formula:
MW:
CAS#:
Comments: in-silico spectrum 48
Num peaks: 69
26.00 0.78
27.00 56.90
28.00 14.51
29.00 123.67
30.00 0.75
39.00 52.80
40.00 7.66
41.00 328.25
42.00 86.90
43.00 769.94
44.00 20.26
53.00 15.26
54.00 15.26
55.00 211.86
56.00 181.05
57.00 880.71
58.00 40.82
67.00 2.95
68.00 12.42
69.00 114.76
70.00 136.46
71.00 577.71
72.00 29.01
83.00 54.31
84.00 90.44
85.00 389.88
86.00 24.07
97.00 45.86
98.00 38.30
99.00 103.58
100.00 8.72
111.00 23.31
112.00 36.59
113.00 69.33
114.00 5.18
125.00 8.30
126.00 28.14
127.00 53.41
128.00 3.36
139.00 1.77
140.00 20.36
141.00 39.80
142.00 4.40
154.00 17.23
155.00 32.62
156.00 3.64
167.00 1.70
168.00 8.65
169.00 18.51
170.00 1.13
182.00 12.15
183.00 21.89
184.00 3.10
197.00 6.73
210.00 10.94
211.00 12.83
224.00 0.95
225.00 6.56
226.00 2.79
238.00 1.31
239.00 6.79
253.00 0.21
267.00 1.44
280.00 1.87
281.00 7.36
282.00 0.67
296.00 0.87
309.00 2.20
324.00 0.20
Name: Dodecane, 2-methyl-6-propyl-
Formula:
MW:
CAS#:
Comments: in-silico spectrum 49
Num peaks: 51
26.00 2.61
27.00 91.86
28.00 19.92
29.00 159.46
30.00 1.76
39.00 68.22
40.00 10.57
41.00 336.01
42.00 88.94
43.00 774.17
44.00 21.01
51.00 0.19
53.00 19.06
54.00 10.28
55.00 176.06
56.00 178.59
57.00 827.36
58.00 37.63
65.00 1.19
68.00 4.25
69.00 85.66
70.00 140.34
71.00 528.80
72.00 26.31
83.00 13.65
84.00 97.86
85.00 354.03
86.00 21.40
97.00 8.93
98.00 30.70
99.00 73.25
100.00 5.60
111.00 2.21
112.00 33.37
113.00 45.95
114.00 2.55
126.00 25.65
127.00 37.37
128.00 2.73
140.00 15.53
141.00 26.89
142.00 2.94
154.00 12.28
155.00 21.11
156.00 1.90
169.00 2.32
182.00 8.00
183.00 13.24
184.00 0.99
210.00 4.38
211.00 2.16
Name: Triacontane, 11,20-didecyl-
Formula:
MW:
CAS#:
Comments: in-silico spectrum 50
Num peaks: 133
40.00 4.51
41.00 256.00
42.00 61.20
43.00 647.02
44.00 20.66
53.00 10.39
54.00 20.74
55.00 305.70
56.00 164.72
57.00 936.30
58.00 44.13
65.00 1.18
67.00 49.17
68.00 36.23
69.00 205.45
70.00 108.63
71.00 663.87
72.00 34.59
73.00 1.26
79.00 10.56
80.00 0.10
81.00 47.41
82.00 51.05
83.00 181.93
84.00 52.84
85.00 460.35
86.00 31.42
91.00 12.15
95.00 32.12
96.00 49.96
97.00 163.10
98.00 55.21
99.00 193.31
100.00 17.23
109.00 15.16
110.00 27.02
111.00 90.89
112.00 38.58
113.00 140.69
114.00 13.12
123.00 2.44
124.00 14.66
125.00 53.73
126.00 30.73
127.00 101.38
128.00 9.18
138.00 7.80
139.00 24.92
140.00 31.82
141.00 79.20
142.00 8.50
152.00 8.02
153.00 20.41
154.00 30.14
155.00 67.07
156.00 7.61
166.00 2.56
167.00 11.68
168.00 74.84
169.00 68.29
170.00 7.11
180.00 0.75
181.00 6.52
182.00 18.54
183.00 44.79
184.00 7.60
195.00 7.06
196.00 61.40
197.00 54.68
198.00 8.37
208.00 0.52
209.00 3.62
210.00 26.69
211.00 44.35
212.00 1.71
222.00 6.58
223.00 11.04
224.00 73.63
225.00 59.81
226.00 12.96
236.00 1.50
237.00 3.43
238.00 34.56
239.00 64.27
240.00 11.04
250.00 2.28
252.00 47.33
253.00 51.97
254.00 7.13
266.00 33.40
267.00 45.90
268.00 9.78
280.00 38.10
281.00 47.33
282.00 8.37
293.00 0.48
294.00 49.38
295.00 67.03
296.00 20.42
308.00 30.46
309.00 43.58
310.00 8.49
321.00 0.40
322.00 24.29
323.00 38.38
324.00 12.06
336.00 35.62
337.00 43.67
338.00 12.53
350.00 27.07
351.00 51.23
352.00 16.05
364.00 19.43
365.00 30.22
366.00 8.02
378.00 7.86
379.00 22.99
380.00 3.09
392.00 13.09
393.00 25.19
394.00 9.38
400.00 1.37
407.00 9.42
420.00 2.67
421.00 15.46
435.00 10.28
449.00 18.24
450.00 9.37
463.00 17.10
464.00 4.53
477.00 17.66
505.00 16.34
519.00 10.52
Name: Tetracosane, 12-decyl-12-nonyl-
Formula:
MW:
CAS#:
Comments: in-silico spectrum 51
Num peaks: 126
40.00 4.96
41.00 260.69
42.00 62.52
43.00 663.50
44.00 21.00
53.00 11.11
54.00 19.38
55.00 296.30
56.00 166.45
57.00 946.45
58.00 44.50
65.00 1.25
67.00 44.09
68.00 33.21
69.00 196.44
70.00 111.11
71.00 669.77
72.00 34.99
79.00 7.24
81.00 41.61
82.00 41.10
83.00 167.02
84.00 54.87
85.00 463.59
86.00 31.47
91.00 10.88
95.00 25.71
96.00 45.36
97.00 151.99
98.00 53.99
99.00 190.83
100.00 16.93
109.00 7.96
110.00 24.06
111.00 84.25
112.00 38.44
113.00 138.88
114.00 13.02
124.00 13.36
125.00 49.48
126.00 30.69
127.00 100.34
128.00 9.19
138.00 6.76
139.00 22.67
140.00 31.03
141.00 78.03
142.00 8.35
152.00 7.16
153.00 18.48
154.00 29.61
155.00 66.32
156.00 7.59
166.00 1.96
167.00 10.59
168.00 71.51
169.00 66.17
170.00 6.75
181.00 5.13
182.00 18.19
183.00 44.31
184.00 7.45
195.00 5.76
196.00 57.58
197.00 52.31
198.00 7.88
209.00 2.37
210.00 25.55
211.00 42.99
212.00 1.54
222.00 4.54
223.00 8.55
224.00 69.31
225.00 56.92
226.00 12.22
236.00 0.22
237.00 1.87
238.00 32.75
239.00 61.87
240.00 10.71
250.00 1.02
252.00 44.41
253.00 49.47
254.00 6.52
266.00 31.27
267.00 43.64
268.00 9.34
280.00 35.80
281.00 45.41
282.00 8.06
294.00 45.54
295.00 63.29
296.00 19.40
308.00 28.39
309.00 41.63
310.00 8.04
322.00 22.11
323.00 36.03
324.00 11.48
336.00 32.79
337.00 40.67
338.00 11.77
350.00 25.03
351.00 48.39
352.00 15.12
364.00 17.16
365.00 27.48
366.00 7.12
378.00 6.22
379.00 20.74
380.00 1.62
392.00 11.86
393.00 23.24
394.00 8.67
400.00 0.08
407.00 7.67
420.00 0.81
421.00 14.34
435.00 8.77
449.00 16.34
450.00 8.41
463.00 15.25
464.00 3.33
477.00 16.03
505.00 13.09
519.00 8.73
Name: Hexadecane, 4-methyl-
Formula:
MW:
CAS#:
Comments: in-silico spectrum 52
Num peaks: 50
26.00 2.66
27.00 92.41
28.00 20.33
29.00 161.18
30.00 2.06
39.00 68.94
40.00 10.17
41.00 341.19
42.00 90.91
43.00 773.16
44.00 20.59
53.00 18.70
54.00 12.51
55.00 187.42
56.00 181.27
57.00 825.12
58.00 37.58
65.00 1.00
68.00 7.09
69.00 94.49
70.00 141.87
71.00 525.08
72.00 26.04
83.00 27.12
84.00 99.70
85.00 351.53
86.00 21.27
97.00 17.37
98.00 32.11
99.00 72.61
100.00 5.59
111.00 7.31
112.00 34.56
113.00 45.15
114.00 2.38
126.00 26.29
127.00 36.69
128.00 2.33
140.00 16.55
141.00 26.68
142.00 2.93
154.00 12.84
155.00 20.61
156.00 1.74
169.00 2.37
182.00 8.88
183.00 13.37
184.00 1.03
210.00 5.47
211.00 2.34
Name: Heptane, 2,2,3,3,5,6,6-heptamethyl-
Formula:
MW:
CAS#:
Comments: in-silico spectrum 53
Num peaks: 50
26.00 3.12
27.00 79.84
28.00 18.29
29.00 130.29
39.00 59.72
40.00 15.90
41.00 276.68
42.00 68.49
43.00 659.05
44.00 22.65
51.00 5.70
52.00 2.63
53.00 25.34
55.00 127.77
56.00 149.65
57.00 709.39
58.00 31.75
65.00 5.84
69.00 63.03
70.00 121.58
71.00 460.91
72.00 24.15
77.00 6.64
84.00 80.70
85.00 309.97
86.00 19.62
98.00 22.32
99.00 66.60
100.00 4.53
112.00 24.19
113.00 43.54
114.00 2.43
126.00 20.11
127.00 34.69
128.00 6.10
129.00 3.20
131.00 3.18
132.00 0.39
140.00 11.71
141.00 25.11
142.00 2.42
145.00 2.49
154.00 10.02
155.00 20.27
156.00 1.30
169.00 1.08
182.00 2.33
183.00 10.13
184.00 0.07
211.00 1.04
Name: Undecane
Formula:
MW:
CAS#:
Comments: in-silico spectrum 54
Num peaks: 41
15.00 0.86
26.00 4.96
27.00 157.34
28.00 29.47
29.00 233.63
30.00 4.72
39.00 97.24
40.00 11.58
41.00 365.60
42.00 100.14
43.00 816.37
44.00 20.28
51.00 4.40
53.00 20.28
54.00 7.27
55.00 123.03
56.00 181.57
57.00 767.45
58.00 33.93
65.00 0.02
69.00 35.49
70.00 151.20
71.00 460.97
72.00 22.12
84.00 116.78
85.00 302.51
86.00 17.42
98.00 20.03
99.00 20.84
100.00 0.66
112.00 31.59
113.00 4.21
126.00 23.33
127.00 9.26
131.00 2.22
140.00 8.52
141.00 4.10
142.00 0.77
154.00 4.61
155.00 0.75
182.00 3.88
Name: 3-Methylheptacosane
Formula:
MW:
CAS#:
Comments: in-silico spectrum 55
Num peaks: 91
27.00 16.30
28.00 8.11
29.00 76.28
39.00 33.95
40.00 6.81
41.00 303.92
42.00 78.00
43.00 730.07
44.00 20.59
53.00 14.11
54.00 16.35
55.00 240.29
56.00 175.35
57.00 899.89
58.00 42.05
65.00 0.57
67.00 17.25
68.00 19.39
69.00 142.85
70.00 127.26
71.00 607.42
72.00 31.11
82.00 2.93
83.00 92.92
84.00 77.34
85.00 413.60
86.00 26.29
96.00 10.95
97.00 82.18
98.00 43.70
99.00 133.37
100.00 11.58
111.00 44.23
112.00 36.74
113.00 93.21
114.00 7.85
124.00 0.87
125.00 22.56
126.00 28.81
127.00 69.37
128.00 5.50
139.00 8.79
140.00 23.93
141.00 52.86
142.00 5.79
153.00 3.81
154.00 21.49
155.00 44.39
156.00 5.22
167.00 4.66
168.00 30.15
169.00 34.85
170.00 3.04
182.00 14.02
183.00 29.45
184.00 4.77
196.00 15.59
197.00 22.18
198.00 2.26
210.00 15.86
211.00 23.30
224.00 24.13
225.00 23.70
226.00 5.97
238.00 12.16
239.00 25.82
240.00 2.99
252.00 12.25
253.00 17.25
254.00 0.27
266.00 10.29
267.00 15.97
268.00 3.04
280.00 13.20
281.00 20.42
282.00 3.26
294.00 9.96
295.00 21.42
296.00 7.39
308.00 6.46
309.00 15.89
310.00 2.59
323.00 8.36
324.00 4.17
336.00 2.76
337.00 7.48
338.00 1.79
350.00 1.65
351.00 11.29
352.00 1.05
421.00 1.09
Name: Eicosane, 3-methyl-
Formula:
MW:
CAS#:
Comments: in-silico spectrum 56
Num peaks: 67
26.00 1.07
27.00 57.96
28.00 14.82
29.00 122.80
30.00 0.62
39.00 53.07
40.00 8.64
41.00 323.59
42.00 84.98
43.00 754.13
44.00 20.53
53.00 16.52
54.00 14.09
55.00 209.25
56.00 178.31
57.00 859.54
58.00 39.70
65.00 0.76
67.00 3.83
68.00 12.20
69.00 114.69
70.00 135.01
71.00 562.98
72.00 28.35
83.00 54.56
84.00 89.33
85.00 379.98
86.00 23.49
97.00 45.27
98.00 37.21
99.00 100.12
100.00 8.30
111.00 23.25
112.00 35.48
113.00 66.96
114.00 4.85
125.00 8.13
126.00 27.41
127.00 51.54
128.00 3.71
139.00 1.66
140.00 19.81
141.00 38.49
142.00 4.20
154.00 16.70
155.00 31.44
156.00 3.35
167.00 1.81
168.00 7.75
169.00 17.11
170.00 0.78
182.00 11.21
183.00 20.68
184.00 2.77
197.00 5.52
210.00 10.09
211.00 11.81
225.00 5.38
226.00 2.21
238.00 0.59
239.00 5.85
267.00 0.58
280.00 1.22
281.00 6.53
282.00 0.31
296.00 0.45
309.00 1.60
Name: 5-Methyldocosane
Formula:
MW:
CAS#:
Comments: in-silico spectrum 57
Num peaks: 73
26.00 0.60
27.00 47.82
28.00 13.23
29.00 111.60
30.00 0.19
39.00 48.50
40.00 8.20
41.00 319.65
42.00 83.51
43.00 748.17
44.00 20.52
53.00 15.99
54.00 14.91
55.00 218.72
56.00 177.98
57.00 869.16
58.00 40.26
65.00 0.76
67.00 7.82
68.00 14.37
69.00 123.07
70.00 133.37
71.00 573.38
72.00 29.00
83.00 66.08
84.00 86.62
85.00 387.87
86.00 24.15
97.00 55.64
98.00 38.98
99.00 108.16
100.00 9.10
111.00 29.18
112.00 35.90
113.00 73.29
114.00 5.57
125.00 12.10
126.00 27.85
127.00 55.82
128.00 4.14
139.00 3.65
140.00 20.93
141.00 41.97
142.00 4.58
154.00 17.92
155.00 34.58
156.00 3.81
167.00 2.62
168.00 13.27
169.00 21.42
170.00 1.34
182.00 11.98
183.00 22.81
184.00 3.27
197.00 9.54
210.00 11.60
211.00 14.63
224.00 5.84
225.00 9.87
226.00 3.14
238.00 3.49
239.00 10.69
253.00 3.78
266.00 1.74
267.00 4.36
268.00 0.05
280.00 4.23
281.00 9.94
282.00 1.01
295.00 4.12
296.00 2.16
309.00 5.08
324.00 0.93
Name: Hexadecane
Formula:
MW:
CAS#:
Comments: in-silico spectrum 58
Num peaks: 47
26.00 2.99
27.00 105.99
28.00 21.97
29.00 176.99
30.00 2.78
39.00 74.58
40.00 9.66
41.00 345.04
42.00 93.21
43.00 786.41
44.00 20.07
51.00 0.06
53.00 17.85
54.00 11.59
55.00 168.78
56.00 180.83
57.00 818.02
58.00 37.18
65.00 0.11
68.00 2.98
69.00 77.00
70.00 143.24
71.00 515.42
72.00 25.37
83.00 4.57
84.00 103.12
85.00 343.73
86.00 20.58
98.00 29.37
99.00 62.26
100.00 4.65
112.00 34.15
113.00 36.84
114.00 1.63
126.00 25.75
127.00 31.25
128.00 1.26
140.00 14.80
141.00 22.06
142.00 2.56
154.00 11.13
155.00 16.68
156.00 1.38
182.00 8.14
183.00 10.81
184.00 0.48
210.00 3.49
Name: Hexacosane, 13-dodecyl-
Formula:
MW:
CAS#:
Comments: in-silico spectrum 59
Num peaks: 119
28.00 1.36
29.00 28.08
39.00 14.69
40.00 5.37
41.00 290.52
42.00 72.32
43.00 705.33
44.00 20.77
53.00 12.29
54.00 20.47
55.00 289.33
56.00 175.92
57.00 942.76
58.00 44.37
65.00 0.77
67.00 37.09
68.00 30.42
69.00 185.44
70.00 121.71
71.00 652.26
72.00 33.76
81.00 20.61
82.00 33.96
83.00 151.00
84.00 67.12
85.00 448.25
86.00 29.54
91.00 5.32
95.00 2.30
96.00 32.67
97.00 132.30
98.00 51.95
99.00 168.54
100.00 14.97
110.00 13.70
111.00 72.95
112.00 39.16
113.00 120.77
114.00 10.94
124.00 7.99
125.00 41.32
126.00 30.96
127.00 87.86
128.00 7.42
138.00 2.78
139.00 18.46
140.00 29.36
141.00 68.29
142.00 7.49
152.00 3.54
153.00 13.10
154.00 27.06
155.00 57.67
156.00 6.87
166.00 1.58
167.00 8.80
168.00 54.70
169.00 53.66
170.00 5.37
181.00 3.64
182.00 17.50
183.00 38.70
184.00 6.57
195.00 3.16
196.00 40.22
197.00 39.92
198.00 5.74
209.00 1.02
210.00 22.76
211.00 35.37
212.00 1.20
222.00 0.84
223.00 3.68
224.00 50.78
225.00 43.50
226.00 10.09
238.00 24.81
239.00 46.73
240.00 7.50
252.00 31.01
253.00 36.16
254.00 4.29
266.00 23.11
267.00 32.56
268.00 7.09
280.00 27.18
281.00 35.55
282.00 6.42
294.00 31.29
295.00 46.36
296.00 14.84
308.00 19.48
309.00 31.08
310.00 6.08
322.00 12.94
323.00 24.53
324.00 8.54
336.00 20.07
337.00 26.68
338.00 7.89
350.00 15.16
351.00 32.63
352.00 9.25
364.00 8.76
365.00 15.36
366.00 3.14
379.00 9.85
392.00 5.40
393.00 13.02
394.00 4.16
407.00 2.10
421.00 8.82
435.00 3.18
449.00 8.16
450.00 3.14
463.00 8.23
477.00 7.58
505.00 0.98
519.00 0.73
Name: 13,17,21-Trimethyltritriacontane
Formula:
MW:
CAS#:
Comments: in-silico spectrum 60
Num peaks: 120
29.00 14.05
39.00 9.41
40.00 5.78
41.00 278.98
42.00 68.16
43.00 683.54
44.00 21.07
53.00 12.57
54.00 19.61
55.00 292.09
56.00 171.51
57.00 933.77
58.00 43.89
65.00 1.38
67.00 40.46
68.00 31.51
69.00 190.44
70.00 117.58
71.00 650.91
72.00 33.86
81.00 29.65
82.00 37.59
83.00 158.22
84.00 62.46
85.00 448.42
86.00 29.85
91.00 8.00
95.00 12.33
96.00 37.31
97.00 139.81
98.00 52.18
99.00 174.35
100.00 15.46
110.00 18.10
111.00 77.36
112.00 38.31
113.00 125.80
114.00 11.57
124.00 10.35
125.00 44.37
126.00 30.50
127.00 91.15
128.00 8.22
138.00 4.39
139.00 20.04
140.00 29.70
141.00 70.89
142.00 7.71
152.00 5.08
153.00 15.34
154.00 27.70
155.00 59.99
156.00 7.04
166.00 1.72
167.00 9.43
168.00 59.96
169.00 57.26
170.00 5.74
181.00 3.92
182.00 17.30
183.00 40.04
184.00 6.79
195.00 3.95
196.00 45.65
197.00 43.52
198.00 6.22
209.00 1.41
210.00 23.29
211.00 37.55
212.00 1.25
222.00 2.23
223.00 5.46
224.00 56.45
225.00 47.50
226.00 10.57
238.00 27.18
239.00 51.35
240.00 8.53
252.00 35.31
253.00 40.39
254.00 4.96
266.00 25.49
267.00 35.96
268.00 7.70
280.00 29.71
281.00 38.44
282.00 6.77
294.00 35.84
295.00 51.75
296.00 16.32
308.00 22.29
309.00 34.36
310.00 6.62
322.00 15.99
323.00 28.21
324.00 9.37
336.00 24.19
337.00 31.23
338.00 9.16
350.00 18.38
351.00 37.76
352.00 11.22
364.00 11.40
365.00 19.19
366.00 4.40
378.00 1.08
379.00 13.40
392.00 7.50
393.00 16.28
394.00 5.52
407.00 3.77
421.00 10.52
435.00 4.85
449.00 10.79
450.00 4.89
463.00 10.32
464.00 0.43
477.00 10.40
505.00 5.03
519.00 3.38
Name: Tetracosane
Formula:
MW:
CAS#:
Comments: in-silico spectrum 61
Num peaks: 71
26.00 0.56
27.00 51.82
28.00 13.62
29.00 117.27
30.00 0.51
39.00 50.16
40.00 7.44
41.00 321.82
42.00 85.05
43.00 761.38
44.00 20.14
53.00 14.85
54.00 14.90
55.00 209.95
56.00 178.70
57.00 878.75
58.00 40.82
67.00 3.12
68.00 12.33
69.00 114.16
70.00 134.12
71.00 579.00
72.00 29.16
83.00 54.09
84.00 87.98
85.00 391.19
86.00 24.22
97.00 47.11
98.00 38.37
99.00 106.64
100.00 9.02
111.00 24.01
112.00 36.21
113.00 71.88
114.00 5.47
125.00 9.08
126.00 27.92
127.00 55.13
128.00 3.57
139.00 2.14
140.00 20.47
141.00 41.13
142.00 4.55
154.00 17.56
155.00 33.92
156.00 3.83
167.00 1.83
168.00 11.06
169.00 20.38
170.00 1.36
182.00 12.21
183.00 22.69
184.00 3.29
197.00 8.52
210.00 11.30
211.00 14.00
224.00 3.54
225.00 8.53
226.00 3.16
238.00 2.48
239.00 9.08
253.00 2.22
266.00 0.71
267.00 3.08
280.00 2.99
281.00 8.78
282.00 0.95
295.00 1.80
296.00 1.60
309.00 3.81
324.00 0.71
Name: Hexadecane, 7,9-dimethyl-
Formula:
MW:
CAS#:
Comments: in-silico spectrum 62
Num peaks: 53
26.00 2.35
27.00 80.97
28.00 18.87
29.00 147.49
30.00 1.55
39.00 63.86
40.00 10.39
41.00 334.42
42.00 88.25
43.00 755.67
44.00 20.74
53.00 19.03
54.00 13.05
55.00 199.01
56.00 179.84
57.00 823.13
58.00 37.62
65.00 1.61
67.00 0.15
68.00 10.05
69.00 106.29
70.00 139.44
71.00 527.89
72.00 26.38
83.00 43.22
84.00 96.18
85.00 354.55
86.00 21.70
97.00 30.98
98.00 33.90
99.00 80.16
100.00 6.32
111.00 15.47
112.00 34.63
113.00 51.30
114.00 3.01
125.00 2.23
126.00 26.49
127.00 40.64
128.00 3.05
140.00 17.84
141.00 30.10
142.00 3.24
154.00 14.14
155.00 23.60
156.00 2.03
167.00 0.90
169.00 6.79
182.00 9.41
183.00 15.27
184.00 1.46
210.00 7.00
211.00 5.12
Name: Cis-1,3-di(n-hexyl)cyclohexane
Formula:
MW:
CAS#:
Comments: in-silico spectrum 63
Num peaks: 76
26.00 8.14
27.00 115.92
28.00 37.42
29.00 207.84
30.00 3.73
39.00 99.81
40.00 24.95
41.00 575.51
42.00 125.52
43.00 655.23
44.00 24.74
51.00 7.35
53.00 49.02
54.00 65.45
55.00 721.18
56.00 266.06
57.00 620.01
58.00 26.76
65.00 12.89
66.00 6.76
67.00 198.33
68.00 123.53
69.00 526.18
70.00 208.61
71.00 298.43
72.00 15.09
77.00 13.14
79.00 9.40
81.00 87.34
82.00 340.28
83.00 619.19
84.00 155.57
85.00 191.05
86.00 10.90
91.00 13.92
95.00 59.33
96.00 73.98
97.00 377.91
98.00 74.44
99.00 20.69
100.00 1.35
109.00 18.98
110.00 32.02
111.00 222.01
112.00 52.38
113.00 1.66
115.00 1.38
124.00 20.65
125.00 107.04
126.00 32.53
128.00 1.60
131.00 18.08
137.00 4.88
138.00 14.45
139.00 53.63
140.00 35.67
141.00 1.96
152.00 12.33
153.00 36.72
154.00 18.73
166.00 11.81
167.00 27.89
180.00 8.38
181.00 14.14
182.00 14.72
195.00 8.13
208.00 0.02
209.00 6.94
210.00 14.29
222.00 5.68
223.00 11.65
236.00 3.28
237.00 2.11
251.00 4.09
266.00 0.24
280.00 2.48
Name: Naphthalene, 1-(1-decylundecyl)decahydro-
Formula:
MW:
CAS#:
Comments: in-silico spectrum 64
Num peaks: 169
26.00 4.21
27.00 35.18
28.00 21.91
29.00 115.38
39.00 61.76
40.00 26.34
41.00 559.05
42.00 105.30
43.00 571.32
44.00 29.05
51.00 3.86
53.00 50.96
54.00 69.26
55.00 842.13
56.00 253.35
57.00 634.31
58.00 27.98
65.00 15.06
66.00 12.11
67.00 257.37
68.00 150.36
69.00 629.17
70.00 190.82
71.00 328.72
72.00 16.42
77.00 26.43
78.00 5.04
79.00 72.23
80.00 28.57
81.00 174.42
82.00 421.32
83.00 761.86
84.00 129.67
85.00 215.94
86.00 13.49
91.00 36.15
92.00 11.74
93.00 63.53
94.00 35.62
95.00 151.32
96.00 125.00
97.00 484.92
98.00 85.67
99.00 68.61
100.00 6.57
105.00 31.72
106.00 8.09
107.00 56.23
108.00 47.90
109.00 126.58
110.00 71.41
111.00 280.76
112.00 47.93
113.00 39.54
114.00 2.36
117.00 2.35
119.00 19.41
120.00 3.53
121.00 54.65
122.00 41.50
123.00 77.27
124.00 43.63
125.00 142.12
126.00 31.35
127.00 22.73
128.00 7.29
129.00 3.77
131.00 7.08
132.00 1.62
133.00 16.46
134.00 11.35
135.00 54.67
136.00 30.78
137.00 67.58
138.00 31.42
139.00 66.65
140.00 38.23
141.00 21.14
145.00 4.54
147.00 22.45
148.00 23.88
149.00 85.57
150.00 44.54
151.00 41.79
152.00 25.75
153.00 53.39
154.00 23.66
155.00 12.90
160.00 9.94
161.00 10.77
162.00 28.17
163.00 29.88
164.00 13.08
165.00 13.41
166.00 10.63
167.00 29.90
168.00 17.36
169.00 2.82
175.00 18.35
176.00 2.39
177.00 28.55
178.00 11.00
179.00 26.90
180.00 20.28
181.00 18.70
182.00 14.26
183.00 6.30
189.00 13.24
190.00 25.46
191.00 24.26
192.00 2.02
194.00 4.63
195.00 12.19
196.00 9.27
203.00 32.14
204.00 38.97
205.00 29.67
206.00 18.98
207.00 13.23
208.00 5.32
209.00 10.73
210.00 18.03
216.00 4.39
217.00 83.90
218.00 68.01
219.00 30.69
220.00 9.67
222.00 16.79
223.00 25.68
224.00 16.62
225.00 0.04
231.00 9.85
232.00 32.68
233.00 32.64
234.00 21.46
236.00 9.74
237.00 9.32
238.00 12.26
244.00 4.91
245.00 0.73
250.00 1.30
251.00 8.01
252.00 2.09
257.00 44.79
258.00 21.59
259.00 41.43
260.00 18.77
261.00 11.01
266.00 20.80
267.00 9.41
280.00 22.03
281.00 5.34
285.00 22.85
292.00 9.42
293.00 11.32
294.00 22.38
295.00 13.79
300.00 25.74
301.00 4.51
321.00 5.54
364.00 2.54
368.00 9.54
370.00 2.88
397.00 36.19
398.00 9.40
400.00 9.72
412.00 74.40
413.00 37.34
420.00 7.50
Name: Tridecane, 4,8-dimethyl-
Formula:
MW:
CAS#:
Comments: in-silico spectrum 65
Num peaks: 47
26.00 3.31
27.00 105.15
28.00 22.21
29.00 173.51
30.00 2.35
39.00 74.26
40.00 11.41
41.00 340.32
42.00 90.51
43.00 772.50
44.00 20.97
51.00 1.67
53.00 20.23
54.00 9.54
55.00 167.42
56.00 178.55
57.00 803.18
58.00 36.30
65.00 1.54
68.00 2.56
69.00 78.72
70.00 142.24
71.00 506.60
72.00 25.11
83.00 4.81
84.00 101.44
85.00 338.10
86.00 20.33
98.00 28.52
99.00 61.30
100.00 4.42
112.00 32.77
113.00 36.60
114.00 1.47
126.00 25.03
127.00 30.88
128.00 2.25
140.00 14.29
141.00 21.86
142.00 2.39
154.00 10.75
155.00 16.46
156.00 1.14
182.00 6.92
183.00 10.03
184.00 0.24
210.00 2.57
Name: 3-Methyltriacontane
Formula:
MW:
CAS#:
Comments: in-silico spectrum 66
Num peaks: 108
27.00 0.52
28.00 5.61
29.00 58.59
39.00 26.80
40.00 6.20
41.00 297.01
42.00 75.48
43.00 719.53
44.00 20.58
53.00 13.35
54.00 17.41
55.00 254.17
56.00 174.57
57.00 913.52
58.00 42.82
65.00 0.59
67.00 23.16
68.00 22.63
69.00 155.35
70.00 124.56
71.00 622.84
72.00 32.04
81.00 1.06
82.00 11.84
83.00 110.03
84.00 73.07
85.00 425.49
86.00 27.35
91.00 0.51
96.00 18.08
97.00 97.79
98.00 46.32
99.00 145.81
100.00 12.80
110.00 4.25
111.00 53.14
112.00 37.35
113.00 103.01
114.00 8.95
124.00 3.30
125.00 28.59
126.00 29.41
127.00 75.99
128.00 6.18
139.00 11.88
140.00 25.67
141.00 58.30
142.00 6.41
152.00 0.41
153.00 6.89
154.00 23.39
155.00 49.17
156.00 5.83
166.00 0.13
167.00 5.93
168.00 38.78
169.00 41.55
170.00 3.87
181.00 0.41
182.00 15.14
183.00 32.73
184.00 5.45
196.00 24.28
197.00 28.51
198.00 3.53
210.00 18.19
211.00 27.63
212.00 0.30
224.00 33.47
225.00 30.69
226.00 7.37
238.00 16.60
239.00 33.33
240.00 4.64
252.00 18.85
253.00 23.98
254.00 1.69
266.00 14.74
267.00 21.85
268.00 4.51
280.00 17.95
281.00 25.75
282.00 4.38
294.00 17.37
295.00 30.24
296.00 10.03
308.00 11.04
309.00 21.32
310.00 3.86
322.00 4.43
323.00 14.15
324.00 5.73
336.00 8.91
337.00 14.31
338.00 4.01
350.00 6.44
351.00 18.91
352.00 3.98
364.00 0.72
365.00 4.30
379.00 0.74
392.00 0.11
393.00 4.18
394.00 0.34
421.00 3.87
449.00 0.97
463.00 1.80
477.00 0.66
Name: Undecane, 5-methyl-
Formula:
MW:
CAS#:
Comments: in-silico spectrum 67
Num peaks: 42
26.00 4.42
27.00 137.56
28.00 26.56
29.00 209.41
30.00 3.65
39.00 88.04
40.00 11.71
41.00 349.59
42.00 94.61
43.00 791.33
44.00 20.56
51.00 3.86
53.00 20.45
54.00 6.72
55.00 130.53
56.00 177.11
57.00 770.70
58.00 34.35
65.00 0.83
69.00 45.37
70.00 145.58
71.00 472.32
72.00 22.96
84.00 109.19
85.00 312.04
86.00 18.27
98.00 21.93
99.00 34.68
100.00 1.90
112.00 30.92
113.00 15.53
126.00 23.26
127.00 16.74
128.00 0.57
131.00 0.13
140.00 9.97
141.00 10.24
142.00 1.32
154.00 6.42
155.00 6.31
182.00 4.34
183.00 2.99
Name: 9-methylheptadecane
Formula:
MW:
CAS#:
Comments: in-silico spectrum 68
Num peaks: 53
26.00 2.03
27.00 79.55
28.00 18.33
29.00 147.77
30.00 1.54
39.00 63.31
40.00 9.55
41.00 338.74
42.00 89.75
43.00 774.65
44.00 20.74
53.00 17.88
54.00 13.56
55.00 199.65
56.00 182.25
57.00 848.54
58.00 38.86
65.00 0.81
68.00 9.51
69.00 104.48
70.00 140.74
71.00 546.17
72.00 27.23
83.00 39.79
84.00 96.78
85.00 366.78
86.00 22.36
97.00 29.57
98.00 34.66
99.00 84.33
100.00 6.75
111.00 14.22
112.00 35.41
113.00 54.29
114.00 3.42
125.00 1.62
126.00 27.11
127.00 43.00
128.00 2.85
140.00 18.07
141.00 31.66
142.00 3.47
154.00 14.53
155.00 25.12
156.00 2.42
167.00 0.46
169.00 8.30
182.00 10.04
183.00 16.51
184.00 1.78
210.00 7.45
211.00 6.16
226.00 0.39
Name: 11-Methylnonacosane
Formula:
MW:
CAS#:
Comments: in-silico spectrum 69
Num peaks: 97
27.00 6.13
28.00 6.52
29.00 65.03
39.00 29.43
40.00 6.45
41.00 300.51
42.00 76.61
43.00 724.19
44.00 20.63
53.00 13.70
54.00 17.22
55.00 251.04
56.00 175.32
57.00 909.72
58.00 42.59
65.00 0.62
67.00 21.66
68.00 21.82
69.00 152.27
70.00 125.85
71.00 617.87
72.00 31.73
82.00 9.71
83.00 105.70
84.00 74.83
85.00 421.61
86.00 27.00
96.00 15.87
97.00 93.37
98.00 45.59
99.00 141.53
100.00 12.39
110.00 2.65
111.00 50.62
112.00 37.24
113.00 99.60
114.00 8.57
124.00 2.54
125.00 26.80
126.00 29.28
127.00 73.68
128.00 5.96
139.00 10.96
140.00 25.14
141.00 56.42
142.00 6.19
153.00 5.93
154.00 22.78
155.00 47.51
156.00 5.63
167.00 5.55
168.00 35.79
169.00 39.20
170.00 3.58
182.00 14.80
183.00 31.59
184.00 5.22
196.00 21.25
197.00 26.29
198.00 3.09
210.00 17.43
211.00 26.13
212.00 0.10
224.00 30.25
225.00 28.26
226.00 6.90
238.00 15.09
239.00 30.67
240.00 4.05
252.00 16.55
253.00 21.62
254.00 1.19
266.00 13.25
267.00 19.82
268.00 4.01
280.00 16.35
281.00 23.91
282.00 3.99
294.00 14.86
295.00 27.20
296.00 9.13
308.00 9.46
309.00 19.41
310.00 3.42
322.00 2.83
323.00 12.11
324.00 5.16
336.00 6.76
337.00 11.90
338.00 3.24
350.00 4.75
351.00 16.22
352.00 2.93
365.00 2.19
393.00 2.41
421.00 2.87
463.00 0.60
Name: 4,8,12-Trimethyldotriacontane
Formula:
MW:
CAS#:
Comments: in-silico spectrum 70
Num peaks: 119
28.00 1.13
29.00 24.25
39.00 13.62
40.00 6.20
41.00 283.86
42.00 69.75
43.00 687.11
44.00 21.07
53.00 13.31
54.00 19.28
55.00 287.20
56.00 172.27
57.00 922.68
58.00 43.30
65.00 1.55
67.00 38.44
68.00 30.38
69.00 186.02
70.00 119.39
71.00 639.43
72.00 33.21
81.00 25.01
82.00 34.99
83.00 152.22
84.00 65.00
85.00 439.71
86.00 29.06
91.00 6.99
95.00 7.39
96.00 33.79
97.00 133.12
98.00 50.99
99.00 166.72
100.00 14.75
110.00 15.72
111.00 73.61
112.00 37.90
113.00 119.80
114.00 10.88
124.00 9.30
125.00 41.78
126.00 30.18
127.00 86.96
128.00 7.87
138.00 3.56
139.00 18.71
140.00 28.92
141.00 67.65
142.00 7.36
152.00 4.34
153.00 13.95
154.00 26.62
155.00 57.13
156.00 6.70
166.00 1.45
167.00 8.87
168.00 54.89
169.00 53.22
170.00 5.22
181.00 3.15
182.00 16.67
183.00 37.99
184.00 6.39
195.00 3.16
196.00 40.62
197.00 39.75
198.00 5.51
209.00 0.89
210.00 22.10
211.00 35.04
212.00 0.95
222.00 1.06
223.00 4.00
224.00 50.98
225.00 43.35
226.00 9.73
238.00 24.74
239.00 46.90
240.00 7.62
252.00 31.39
253.00 36.43
254.00 4.18
266.00 23.02
267.00 32.62
268.00 6.99
280.00 26.99
281.00 35.35
282.00 6.14
294.00 31.69
295.00 46.76
296.00 14.84
308.00 19.67
309.00 31.22
310.00 5.97
322.00 13.37
323.00 24.90
324.00 8.40
336.00 20.63
337.00 27.21
338.00 7.95
350.00 15.58
351.00 33.32
352.00 9.51
364.00 8.99
365.00 15.75
366.00 3.23
379.00 10.44
392.00 5.73
393.00 13.40
394.00 4.23
407.00 2.20
421.00 8.84
435.00 3.24
449.00 8.55
450.00 3.43
463.00 8.30
477.00 8.15
505.00 1.86
519.00 1.32
Name: Decane, 5,6-bis(2,2-dimethylpropylidene)-, (E,Z)-
Formula:
MW:
CAS#:
Comments: in-silico spectrum 71
Num peaks: 74
26.00 5.45
27.00 82.94
28.00 25.46
29.00 147.60
30.00 1.39
39.00 71.93
40.00 20.59
41.00 396.53
42.00 90.47
43.00 614.81
44.00 23.62
51.00 7.20
52.00 0.60
53.00 37.75
54.00 29.07
55.00 407.10
56.00 197.62
57.00 639.83
58.00 28.10
65.00 11.00
67.00 90.15
68.00 57.65
69.00 287.74
70.00 155.94
71.00 372.91
72.00 19.50
77.00 12.96
79.00 0.95
81.00 35.12
82.00 134.97
83.00 291.47
84.00 109.53
85.00 248.38
86.00 15.68
91.00 9.74
95.00 14.70
96.00 29.71
97.00 183.60
98.00 47.86
99.00 51.66
100.00 3.68
110.00 13.76
111.00 107.81
112.00 36.31
113.00 29.30
114.00 0.46
115.00 2.17
124.00 12.39
125.00 51.12
126.00 26.23
127.00 21.05
128.00 5.62
129.00 3.09
131.00 10.95
132.00 1.72
138.00 6.10
139.00 25.22
140.00 25.59
141.00 18.42
142.00 0.85
145.00 0.23
152.00 6.63
153.00 18.02
154.00 15.45
155.00 10.65
165.00 1.29
166.00 3.56
167.00 13.77
180.00 0.64
181.00 1.08
182.00 8.97
183.00 5.54
195.00 0.29
210.00 9.45
Name: Undecane, 4,6-dimethyl-
Formula:
MW:
CAS#:
Comments: in-silico spectrum 72
Num peaks: 42
26.00 4.39
27.00 131.03
28.00 26.08
29.00 201.51
30.00 3.35
39.00 85.64
40.00 12.43
41.00 348.50
42.00 93.55
43.00 780.66
44.00 20.89
51.00 4.04
53.00 21.57
54.00 7.39
55.00 143.60
56.00 177.99
57.00 769.35
58.00 34.31
65.00 1.63
69.00 57.95
70.00 145.53
71.00 473.34
72.00 23.19
84.00 107.97
85.00 313.54
86.00 18.56
98.00 23.65
99.00 39.37
100.00 2.29
112.00 31.34
113.00 19.37
126.00 23.67
127.00 19.12
128.00 1.19
131.00 0.49
140.00 11.19
141.00 12.42
142.00 1.43
154.00 7.47
155.00 8.04
182.00 4.75
183.00 4.13
Name: 1-Cyclopentyleicosane
Formula:
MW:
CAS#:
Comments: in-silico spectrum 73
Num peaks: 82
26.00 6.64
27.00 91.46
28.00 33.14
29.00 184.52
30.00 2.56
39.00 89.65
40.00 23.31
41.00 581.86
42.00 125.87
43.00 678.54
44.00 25.42
51.00 3.96
53.00 47.04
54.00 69.10
55.00 756.70
56.00 272.83
57.00 688.59
58.00 30.28
65.00 11.99
66.00 7.84
67.00 209.31
68.00 130.24
69.00 552.28
70.00 209.72
71.00 353.22
72.00 17.84
77.00 11.87
79.00 15.76
81.00 101.28
82.00 356.57
83.00 652.47
84.00 152.36
85.00 229.93
86.00 13.60
91.00 16.61
95.00 73.02
96.00 86.07
97.00 406.77
98.00 80.73
99.00 45.87
100.00 3.83
109.00 32.47
110.00 38.98
111.00 237.84
112.00 55.04
113.00 20.78
124.00 23.97
125.00 117.13
126.00 34.77
127.00 11.24
128.00 2.37
131.00 8.74
137.00 11.34
138.00 16.86
139.00 58.01
140.00 38.93
141.00 12.42
152.00 14.32
153.00 40.54
154.00 22.16
155.00 3.61
166.00 12.48
167.00 29.23
180.00 10.19
181.00 16.88
182.00 17.45
183.00 2.94
195.00 10.23
208.00 1.68
209.00 9.07
210.00 18.37
222.00 9.51
223.00 16.21
236.00 5.58
237.00 5.14
238.00 0.52
250.00 0.43
251.00 6.16
266.00 7.76
280.00 10.52
294.00 1.11
420.00 2.43
Name: 13-Methylnonacosane
Formula:
MW:
CAS#:
Comments: in-silico spectrum 74
Num peaks: 97
27.00 6.17
28.00 6.54
29.00 65.05
39.00 29.45
40.00 6.46
41.00 300.45
42.00 76.59
43.00 723.92
44.00 20.63
53.00 13.71
54.00 17.22
55.00 250.98
56.00 175.29
57.00 909.33
58.00 42.57
65.00 0.63
67.00 21.66
68.00 21.82
69.00 152.26
70.00 125.83
71.00 617.58
72.00 31.72
82.00 9.74
83.00 105.72
84.00 74.82
85.00 421.42
86.00 26.99
96.00 15.86
97.00 93.37
98.00 45.58
99.00 141.45
100.00 12.38
110.00 2.65
111.00 50.63
112.00 37.23
113.00 99.55
114.00 8.56
124.00 2.54
125.00 26.81
126.00 29.28
127.00 73.64
128.00 5.96
139.00 10.97
140.00 25.14
141.00 56.39
142.00 6.18
153.00 5.94
154.00 22.77
155.00 47.48
156.00 5.62
167.00 5.56
168.00 35.77
169.00 39.17
170.00 3.58
182.00 14.80
183.00 31.57
184.00 5.21
196.00 21.23
197.00 26.26
198.00 3.08
210.00 17.43
211.00 26.11
212.00 0.10
224.00 30.23
225.00 28.24
226.00 6.90
238.00 15.08
239.00 30.65
240.00 4.05
252.00 16.53
253.00 21.60
254.00 1.18
266.00 13.24
267.00 19.80
268.00 4.00
280.00 16.34
281.00 23.89
282.00 3.99
294.00 14.84
295.00 27.18
296.00 9.12
308.00 9.45
309.00 19.40
310.00 3.42
322.00 2.82
323.00 12.10
324.00 5.16
336.00 6.75
337.00 11.89
338.00 3.24
350.00 4.74
351.00 16.20
352.00 2.93
365.00 2.18
393.00 2.40
421.00 2.87
463.00 0.59
Name: Hexacosane, 9-octyl-
Formula:
MW:
CAS#:
Comments: in-silico spectrum 75
Num peaks: 113
28.00 3.82
29.00 46.34
39.00 21.92
40.00 5.80
41.00 298.78
42.00 75.24
43.00 720.46
44.00 20.78
53.00 12.98
54.00 19.41
55.00 275.23
56.00 177.32
57.00 934.56
58.00 43.85
65.00 0.63
67.00 30.63
68.00 26.95
69.00 172.27
70.00 124.85
71.00 640.74
72.00 33.01
81.00 9.95
82.00 23.94
83.00 132.45
84.00 71.52
85.00 438.77
86.00 28.50
91.00 2.60
96.00 25.10
97.00 115.75
98.00 49.51
99.00 156.73
100.00 13.88
110.00 8.45
111.00 63.36
112.00 38.61
113.00 111.38
114.00 9.91
124.00 5.42
125.00 34.98
126.00 30.50
127.00 81.64
128.00 6.76
138.00 0.87
139.00 15.11
140.00 27.58
141.00 63.05
142.00 6.93
152.00 1.82
153.00 9.77
154.00 25.24
155.00 53.22
156.00 6.38
166.00 0.84
167.00 7.31
168.00 45.91
169.00 47.08
170.00 4.57
181.00 2.08
182.00 16.49
183.00 35.61
184.00 6.01
195.00 1.33
196.00 31.34
197.00 33.64
198.00 4.59
210.00 20.48
211.00 31.20
212.00 0.75
223.00 0.35
224.00 41.22
225.00 36.44
226.00 8.68
238.00 20.41
239.00 39.28
240.00 5.91
252.00 24.19
253.00 29.34
254.00 2.87
266.00 18.64
267.00 26.71
268.00 5.74
280.00 22.24
281.00 30.27
282.00 5.37
294.00 23.65
295.00 37.48
296.00 12.24
308.00 14.78
309.00 25.66
310.00 4.89
322.00 8.14
323.00 18.68
324.00 6.97
336.00 13.73
337.00 19.65
338.00 5.75
350.00 10.18
351.00 24.84
352.00 6.22
364.00 4.25
365.00 9.11
366.00 1.16
379.00 4.55
392.00 2.29
393.00 7.95
394.00 1.97
421.00 6.00
435.00 0.19
449.00 4.02
450.00 0.64
463.00 4.63
477.00 3.54
Name: Dodecane, 3-methyl-
Formula:
MW:
CAS#:
Comments: in-silico spectrum 76
Num peaks: 43
26.00 3.88
27.00 123.93
28.00 24.57
29.00 194.68
30.00 3.14
39.00 82.10
40.00 11.20
41.00 345.59
42.00 93.09
43.00 786.61
44.00 20.58
51.00 2.63
53.00 19.80
54.00 7.95
55.00 143.96
56.00 177.59
57.00 788.03
58.00 35.38
65.00 0.80
69.00 57.09
70.00 143.97
71.00 489.39
72.00 23.96
84.00 105.85
85.00 324.71
86.00 19.19
98.00 24.60
99.00 46.19
100.00 3.02
112.00 31.75
113.00 24.58
114.00 0.31
126.00 24.02
127.00 22.88
128.00 1.11
140.00 11.68
141.00 15.20
142.00 1.81
154.00 8.22
155.00 10.72
156.00 0.54
182.00 5.53
183.00 6.11
Name: Heptane, 2,3-dimethyl-
Formula:
MW:
CAS#:
Comments: in-silico spectrum 77
Num peaks: 33
15.00 10.43
26.00 6.42
27.00 187.66
28.00 33.89
29.00 263.47
30.00 5.26
38.00 1.01
39.00 110.09
40.00 14.68
41.00 367.09
42.00 99.70
43.00 822.57
44.00 21.60
51.00 9.03
52.00 2.91
53.00 24.20
54.00 0.22
55.00 78.79
56.00 176.46
57.00 724.18
58.00 31.15
65.00 1.45
70.00 153.05
71.00 422.92
72.00 20.15
84.00 121.36
85.00 274.53
86.00 15.40
98.00 11.66
112.00 27.31
126.00 20.34
131.00 13.18
140.00 3.13
Name: 3,3-Diethyltridecane
Formula:
MW:
CAS#:
Comments: in-silico spectrum 78
Num peaks: 57
26.00 1.38
27.00 65.95
28.00 15.45
29.00 129.11
30.00 0.38
39.00 55.53
40.00 9.49
41.00 315.01
42.00 82.13
43.00 754.91
44.00 21.05
53.00 17.38
54.00 9.36
55.00 178.03
56.00 172.26
57.00 847.46
58.00 38.95
65.00 1.05
68.00 5.05
69.00 89.70
70.00 132.64
71.00 555.43
72.00 28.12
83.00 19.03
84.00 87.84
85.00 374.14
86.00 23.04
97.00 19.91
98.00 32.71
99.00 93.12
100.00 7.54
111.00 8.18
112.00 32.63
113.00 62.03
114.00 4.52
126.00 25.64
127.00 48.48
128.00 4.06
140.00 16.79
141.00 35.36
142.00 3.91
154.00 14.51
155.00 29.34
156.00 3.24
168.00 2.10
169.00 12.87
170.00 0.15
182.00 8.91
183.00 18.46
184.00 2.23
197.00 1.88
210.00 6.66
211.00 8.87
225.00 0.75
226.00 0.92
239.00 2.18
281.00 2.87
Name: Docosane, 7-hexyl-
Formula:
MW:
CAS#:
Comments: in-silico spectrum 79
Num peaks: 89
27.00 21.99
28.00 9.28
29.00 84.41
39.00 37.39
40.00 7.11
41.00 316.94
42.00 81.49
43.00 745.20
44.00 20.86
53.00 14.82
54.00 17.91
55.00 252.04
56.00 180.72
57.00 908.60
58.00 42.33
65.00 0.67
67.00 20.06
68.00 21.35
69.00 150.61
70.00 131.72
71.00 609.31
72.00 31.06
82.00 8.81
83.00 102.48
84.00 81.46
85.00 414.38
86.00 26.28
96.00 10.98
97.00 86.79
98.00 44.71
99.00 130.79
100.00 11.37
111.00 46.91
112.00 37.85
113.00 90.84
114.00 7.60
124.00 0.50
125.00 23.56
126.00 29.58
127.00 67.76
128.00 5.30
139.00 9.31
140.00 24.37
141.00 51.74
142.00 5.65
153.00 3.73
154.00 21.47
155.00 43.18
156.00 5.04
167.00 4.93
168.00 27.91
169.00 33.05
170.00 2.85
182.00 14.39
183.00 28.81
184.00 4.63
196.00 13.10
197.00 20.28
198.00 1.89
210.00 15.94
211.00 22.20
224.00 21.74
225.00 21.83
226.00 5.74
238.00 11.25
239.00 23.36
240.00 2.37
252.00 10.34
253.00 15.16
266.00 9.52
267.00 14.41
268.00 2.62
280.00 12.50
281.00 19.16
282.00 3.02
294.00 8.33
295.00 19.08
296.00 6.68
308.00 5.30
309.00 14.23
310.00 2.26
323.00 6.49
324.00 3.58
336.00 0.87
337.00 5.29
338.00 1.14
350.00 0.11
351.00 8.74
421.00 0.15
Name: Pentacosane
Formula:
MW:
CAS#:
Comments: in-silico spectrum 80
Num peaks: 77
26.00 0.21
27.00 44.72
28.00 12.61
29.00 110.06
30.00 0.22
39.00 47.22
40.00 7.18
41.00 322.33
42.00 84.81
43.00 762.82
44.00 20.29
53.00 14.60
54.00 15.88
55.00 220.53
56.00 180.14
57.00 892.44
58.00 41.53
67.00 6.75
68.00 14.42
69.00 122.74
70.00 134.15
71.00 590.74
72.00 29.83
83.00 65.09
84.00 86.88
85.00 399.74
86.00 24.88
97.00 56.39
98.00 40.18
99.00 113.32
100.00 9.68
111.00 29.34
112.00 36.93
113.00 77.04
114.00 6.06
125.00 12.46
126.00 28.53
127.00 58.65
128.00 3.90
139.00 3.82
140.00 21.54
141.00 43.99
142.00 4.85
154.00 18.66
155.00 36.44
156.00 4.19
167.00 2.55
168.00 15.23
169.00 23.72
170.00 1.79
182.00 13.00
183.00 24.49
184.00 3.70
196.00 0.47
197.00 11.55
198.00 0.35
210.00 12.61
211.00 16.18
224.00 7.99
225.00 11.89
226.00 3.87
238.00 4.68
239.00 12.66
240.00 0.00
252.00 0.63
253.00 5.42
266.00 2.90
267.00 5.92
268.00 0.63
280.00 5.31
281.00 11.40
282.00 1.51
295.00 6.00
296.00 2.88
309.00 6.39
310.00 0.53
324.00 1.45
Name: Hexadecane, 2,6,10-trimethyl-
Formula:
MW:
CAS#:
Comments: in-silico spectrum 81
Num peaks: 61
26.00 1.52
27.00 63.61
28.00 15.82
29.00 127.23
30.00 0.55
39.00 55.56
40.00 10.18
41.00 322.60
42.00 83.81
43.00 749.75
44.00 21.25
53.00 18.54
54.00 11.81
55.00 201.18
56.00 176.67
57.00 845.18
58.00 38.80
65.00 1.73
67.00 1.80
68.00 10.19
69.00 109.56
70.00 135.36
71.00 551.98
72.00 27.89
83.00 45.62
84.00 89.71
85.00 372.16
86.00 22.97
97.00 37.81
98.00 35.27
99.00 94.74
100.00 7.65
111.00 19.09
112.00 34.13
113.00 63.11
114.00 4.41
125.00 5.34
126.00 26.60
127.00 48.84
128.00 4.15
139.00 0.14
140.00 18.60
141.00 36.28
142.00 3.88
154.00 15.63
155.00 29.53
156.00 2.98
167.00 1.11
168.00 4.44
169.00 14.03
170.00 0.20
182.00 9.77
183.00 18.88
184.00 2.28
197.00 2.77
210.00 8.31
211.00 9.69
225.00 2.23
226.00 1.14
239.00 3.13
281.00 4.19
Name: Cyclooctacosane
Formula:
MW:
CAS#:
Comments: in-silico spectrum 82
Num peaks: 86
26.00 5.29
27.00 77.85
28.00 30.09
29.00 172.03
30.00 2.59
39.00 82.93
40.00 20.15
41.00 569.75
42.00 126.98
43.00 724.43
44.00 25.06
51.00 0.27
53.00 41.80
54.00 67.94
55.00 726.07
56.00 274.71
57.00 771.70
58.00 34.70
65.00 9.59
66.00 6.81
67.00 192.72
68.00 123.06
69.00 524.53
70.00 208.21
71.00 422.13
72.00 21.35
77.00 6.43
79.00 5.82
81.00 88.67
82.00 328.22
83.00 611.88
84.00 148.99
85.00 278.46
86.00 16.81
91.00 13.05
95.00 59.86
96.00 82.24
97.00 388.23
98.00 81.93
99.00 68.07
100.00 5.87
109.00 17.02
110.00 35.00
111.00 226.33
112.00 57.60
113.00 37.89
114.00 0.79
124.00 20.82
125.00 112.68
126.00 37.12
127.00 24.16
128.00 2.09
137.00 0.26
138.00 14.33
139.00 55.90
140.00 40.62
141.00 22.38
142.00 0.34
152.00 12.29
153.00 38.04
154.00 24.57
155.00 12.32
166.00 12.40
167.00 28.14
168.00 4.33
180.00 8.19
181.00 17.45
182.00 20.03
183.00 9.72
195.00 10.56
208.00 1.85
209.00 9.52
210.00 21.86
222.00 10.14
223.00 16.51
224.00 1.79
236.00 5.78
237.00 6.02
238.00 4.96
250.00 1.63
251.00 6.56
266.00 11.25
280.00 14.78
294.00 6.96
321.00 0.38
420.00 3.23
Name: Hexane, 2,3,5-trimethyl-
Formula:
MW:
CAS#:
Comments: in-silico spectrum 83
Num peaks: 33
15.00 18.84
26.00 7.91
27.00 217.05
28.00 38.70
29.00 292.59
30.00 6.62
38.00 5.01
39.00 122.83
40.00 16.46
41.00 366.94
42.00 100.92
43.00 801.04
44.00 21.08
50.00 2.22
51.00 12.64
52.00 4.84
53.00 26.53
55.00 48.97
56.00 171.60
57.00 648.77
58.00 27.22
65.00 2.41
70.00 153.87
71.00 359.55
72.00 16.76
84.00 127.22
85.00 229.75
86.00 12.52
98.00 5.41
112.00 24.96
115.00 3.33
126.00 18.08
131.00 23.00
Name: 6,6-Diethylhexadecane
Formula:
MW:
CAS#:
Comments: in-silico spectrum 84
Num peaks: 77
26.00 0.29
27.00 42.10
28.00 11.84
29.00 103.20
39.00 44.99
40.00 8.51
41.00 307.94
42.00 79.31
43.00 743.64
44.00 21.09
53.00 16.15
54.00 11.69
55.00 203.51
56.00 172.72
57.00 873.61
58.00 40.45
65.00 0.99
67.00 3.35
68.00 10.75
69.00 111.82
70.00 129.62
71.00 581.97
72.00 29.74
83.00 48.99
84.00 82.12
85.00 394.08
86.00 24.64
97.00 46.22
98.00 37.36
99.00 112.64
100.00 9.48
111.00 23.31
112.00 34.02
113.00 77.29
114.00 6.21
125.00 9.16
126.00 26.89
127.00 58.80
128.00 5.03
139.00 1.57
140.00 19.73
141.00 43.80
142.00 4.82
154.00 17.64
155.00 36.82
156.00 4.28
167.00 1.37
168.00 15.28
169.00 23.27
170.00 1.49
182.00 10.95
183.00 23.71
184.00 3.45
196.00 0.69
197.00 11.45
198.00 0.15
210.00 10.52
211.00 15.66
224.00 7.56
225.00 11.44
226.00 3.12
238.00 4.12
239.00 13.63
240.00 0.51
252.00 0.88
253.00 5.96
266.00 2.04
267.00 5.86
268.00 0.49
280.00 4.19
281.00 11.08
282.00 1.18
295.00 6.13
296.00 2.81
309.00 6.77
310.00 0.13
324.00 1.46
Name: Pentatriacontane, 13-docosenylidene-
Formula:
MW:
CAS#:
Comments: in-silico spectrum 85
Num peaks: 145
28.00 3.23
29.00 27.18
39.00 17.89
40.00 10.34
41.00 354.70
42.00 78.91
43.00 656.41
44.00 23.62
53.00 21.85
54.00 36.48
55.00 461.33
56.00 196.42
57.00 879.43
58.00 41.12
65.00 5.34
66.00 2.42
67.00 106.95
68.00 68.88
69.00 325.81
70.00 136.60
71.00 586.15
72.00 29.98
77.00 4.44
79.00 22.08
80.00 5.90
81.00 77.54
82.00 155.67
83.00 345.40
84.00 78.67
85.00 402.47
86.00 26.95
91.00 18.50
92.00 0.78
93.00 6.49
95.00 58.90
96.00 70.26
97.00 253.66
98.00 64.63
99.00 158.32
100.00 14.31
109.00 36.30
110.00 37.64
111.00 144.39
112.00 42.13
113.00 111.58
114.00 10.15
123.00 14.26
124.00 22.36
125.00 79.31
126.00 32.36
127.00 79.09
128.00 8.61
137.00 6.56
138.00 13.56
139.00 36.92
140.00 35.10
141.00 63.53
142.00 6.44
149.00 6.07
151.00 1.74
152.00 12.24
153.00 28.88
154.00 28.32
155.00 51.89
156.00 4.89
165.00 0.23
166.00 4.94
167.00 16.94
168.00 57.66
169.00 49.99
170.00 4.51
180.00 6.13
181.00 10.80
182.00 18.40
183.00 34.29
184.00 4.98
195.00 8.39
196.00 44.39
197.00 37.89
198.00 4.27
204.00 0.64
208.00 2.44
209.00 6.68
210.00 25.53
211.00 31.50
217.00 6.25
218.00 0.43
222.00 10.86
223.00 16.19
224.00 56.01
225.00 42.55
226.00 9.50
236.00 4.44
237.00 5.69
238.00 28.17
239.00 43.05
240.00 6.01
250.00 2.50
251.00 2.75
252.00 33.55
253.00 35.32
254.00 3.93
266.00 29.33
267.00 34.63
268.00 6.22
280.00 33.16
281.00 35.13
282.00 4.19
292.00 1.25
293.00 3.43
294.00 40.60
295.00 50.82
296.00 14.37
308.00 21.31
309.00 29.40
310.00 4.34
321.00 3.27
322.00 15.75
323.00 24.39
324.00 5.85
336.00 22.71
337.00 27.63
338.00 6.81
350.00 16.13
351.00 32.46
352.00 7.69
364.00 13.72
365.00 18.82
366.00 2.05
379.00 11.08
392.00 4.46
393.00 13.10
394.00 3.19
400.00 1.59
407.00 4.39
412.00 5.11
420.00 3.99
421.00 8.15
435.00 2.58
449.00 9.39
450.00 1.32
463.00 10.80
477.00 8.31
505.00 5.66
519.00 1.25
Name: Pentatriacontane
Formula:
MW:
CAS#:
Comments: in-silico spectrum 86
Num peaks: 110
28.00 3.79
29.00 47.31
39.00 21.82
40.00 5.21
41.00 293.53
42.00 74.73
43.00 722.40
44.00 20.25
53.00 11.90
54.00 18.54
55.00 261.07
56.00 175.25
57.00 936.32
58.00 44.17
67.00 25.02
68.00 24.12
69.00 160.62
70.00 123.29
71.00 643.21
72.00 33.17
81.00 4.61
82.00 14.68
83.00 116.97
84.00 70.71
85.00 440.32
86.00 28.49
91.00 0.92
96.00 21.90
97.00 105.82
98.00 48.50
99.00 156.58
100.00 13.89
110.00 6.23
111.00 57.56
112.00 38.44
113.00 111.27
114.00 9.85
124.00 4.00
125.00 31.84
126.00 30.24
127.00 81.79
128.00 6.37
139.00 13.63
140.00 27.09
141.00 62.84
142.00 6.94
152.00 0.88
153.00 8.35
154.00 25.11
155.00 53.22
156.00 6.45
166.00 0.53
167.00 6.64
168.00 45.13
169.00 47.03
170.00 4.63
181.00 1.67
182.00 16.55
183.00 35.78
184.00 6.08
195.00 0.84
196.00 30.54
197.00 33.51
198.00 4.65
210.00 20.25
211.00 31.15
212.00 0.97
224.00 40.28
225.00 36.04
226.00 8.60
238.00 19.90
239.00 39.07
240.00 5.88
252.00 23.58
253.00 28.99
254.00 2.92
266.00 17.99
267.00 26.20
268.00 5.70
280.00 21.39
281.00 29.82
282.00 5.42
294.00 22.48
295.00 36.55
296.00 12.03
308.00 14.33
309.00 25.41
310.00 4.99
322.00 7.57
323.00 18.23
324.00 7.10
336.00 13.16
337.00 19.18
338.00 5.60
350.00 9.79
351.00 24.21
352.00 6.06
364.00 3.77
365.00 8.54
366.00 1.15
379.00 4.32
392.00 2.22
393.00 7.69
394.00 1.95
421.00 6.10
435.00 0.12
449.00 3.62
450.00 0.64
463.00 4.27
477.00 3.29
Name: Heptane, 3,4-dimethyl-
Formula:
MW:
CAS#:
Comments: in-silico spectrum 87
Num peaks: 33
15.00 12.98
26.00 6.95
27.00 198.28
28.00 35.80
29.00 274.81
30.00 5.84
38.00 2.22
39.00 115.03
40.00 15.17
41.00 371.03
42.00 101.36
43.00 817.53
44.00 21.33
51.00 10.08
52.00 3.29
53.00 24.97
54.00 0.44
55.00 75.30
56.00 176.76
57.00 700.27
58.00 29.91
65.00 1.70
70.00 154.65
71.00 401.33
72.00 18.98
84.00 124.66
85.00 259.24
86.00 14.45
98.00 10.38
112.00 27.20
126.00 20.03
131.00 16.31
140.00 2.48
Name: Pentane, 2,2,3,4-tetramethyl-
Formula:
MW:
CAS#:
Comments: in-silico spectrum 88
Num peaks: 35
15.00 23.52
26.00 8.86
27.00 221.26
28.00 40.63
29.00 292.82
30.00 6.68
38.00 7.20
39.00 125.13
40.00 19.46
41.00 360.05
42.00 97.75
43.00 759.46
44.00 21.50
50.00 4.44
51.00 15.69
52.00 6.54
53.00 30.72
55.00 51.37
56.00 167.92
57.00 592.84
58.00 24.36
65.00 4.98
70.00 152.81
71.00 319.29
72.00 15.05
84.00 126.96
85.00 203.01
86.00 11.21
98.00 4.11
112.00 23.45
115.00 8.72
126.00 16.91
129.00 0.51
131.00 30.85
132.00 2.49
Name: Nonane, 5-(2-methylpropyl)-
Formula:
MW:
CAS#:
Comments: in-silico spectrum 89
Num peaks: 42
26.00 4.48
27.00 133.67
28.00 26.95
29.00 207.43
30.00 3.61
39.00 88.10
40.00 12.59
41.00 365.68
42.00 97.97
43.00 805.45
44.00 21.46
51.00 3.60
53.00 22.18
54.00 9.72
55.00 163.43
56.00 186.27
57.00 795.43
58.00 35.38
65.00 1.57
68.00 0.54
69.00 71.56
70.00 151.71
71.00 488.09
72.00 23.91
84.00 112.71
85.00 323.13
86.00 19.09
98.00 26.08
99.00 41.42
100.00 2.47
112.00 33.40
113.00 20.47
126.00 25.06
127.00 19.99
128.00 1.11
140.00 12.54
141.00 13.25
142.00 1.52
154.00 8.23
155.00 8.39
182.00 5.76
183.00 4.77
Name: Octadecane, 2,6-dimethyl-
Formula:
MW:
CAS#:
Comments: in-silico spectrum 90
Num peaks: 62
26.00 1.24
27.00 60.78
28.00 15.18
29.00 125.03
30.00 0.51
39.00 54.20
40.00 9.33
41.00 322.76
42.00 84.24
43.00 755.13
44.00 20.96
53.00 17.40
54.00 12.56
55.00 202.66
56.00 177.28
57.00 856.26
58.00 39.42
65.00 1.13
67.00 1.66
68.00 10.46
69.00 109.71
70.00 135.09
71.00 560.59
72.00 28.28
83.00 46.46
84.00 89.28
85.00 378.11
86.00 23.32
97.00 39.24
98.00 36.00
99.00 97.90
100.00 8.01
111.00 19.72
112.00 34.66
113.00 65.42
114.00 4.69
125.00 5.89
126.00 26.93
127.00 50.54
128.00 3.97
139.00 0.35
140.00 18.96
141.00 37.52
142.00 4.06
154.00 16.06
155.00 30.71
156.00 3.25
167.00 1.15
168.00 6.01
169.00 15.63
170.00 0.50
182.00 10.37
183.00 19.85
184.00 2.54
197.00 4.20
210.00 8.97
211.00 10.76
225.00 3.80
226.00 1.67
239.00 4.61
281.00 5.34
309.00 0.58
Name: Octane, 2-methyl-
Formula:
MW:
CAS#:
Comments: in-silico spectrum 91
Num peaks: 36
15.00 8.71
26.00 6.37
27.00 183.77
28.00 33.81
29.00 260.13
30.00 5.57
38.00 0.41
39.00 108.92
40.00 13.91
41.00 369.90
42.00 101.30
43.00 810.86
44.00 20.73
51.00 8.08
52.00 1.88
53.00 23.40
54.00 3.74
55.00 97.64
56.00 179.04
57.00 716.62
58.00 31.02
65.00 1.21
69.00 15.87
70.00 153.68
71.00 416.40
72.00 19.76
84.00 122.32
85.00 270.48
86.00 15.25
98.00 14.36
112.00 29.17
126.00 21.32
131.00 11.67
140.00 5.13
154.00 0.93
182.00 0.76
