Name: Undecane, 5-cyclohexyl-
Formula:
MW:
CAS#:
Comments: in-silico spectrum 1
Num peaks: 35
57.00 865.53
411.00 3681.67
412.00 3875.99
413.00 4559.19
414.00 4897.49
415.00 4723.16
416.00 4477.61
417.00 4478.54
418.00 4185.45
419.00 3780.84
420.00 11495.32
421.00 14946.95
422.00 20695.63
423.00 23064.88
424.00 22748.76
425.00 22076.64
426.00 20958.41
427.00 19669.60
428.00 18229.82
431.00 925.14
432.00 1645.17
433.00 2022.95
434.00 1604.15
435.00 2125.90
436.00 1708.48
437.00 1673.64
447.00 11925.32
448.00 10396.03
449.00 21303.54
450.00 31958.09
451.00 33549.25
452.00 32872.30
453.00 31573.68
454.00 30084.14
455.00 28124.50
Name: Cyclohexane, 1,1'-tetradecylidenebis-
Formula:
MW:
CAS#:
Comments: in-silico spectrum 2
Num peaks: 35
57.00 1177.18
411.00 4987.84
412.00 5270.79
413.00 6178.72
414.00 6652.96
415.00 6401.82
416.00 6043.93
417.00 6049.36
418.00 5660.61
419.00 5104.47
420.00 15678.61
421.00 20391.53
422.00 28292.92
423.00 31514.01
424.00 31092.91
425.00 30165.92
426.00 28630.04
427.00 26851.54
428.00 24900.97
431.00 1261.81
432.00 2217.56
433.00 2737.90
434.00 2170.11
435.00 2867.45
436.00 2306.00
437.00 2274.81
447.00 16270.76
448.00 14176.65
449.00 29108.72
450.00 43665.38
451.00 45829.18
452.00 44896.21
453.00 43128.75
454.00 41102.17
455.00 38452.89
Name: Decane, 2,3,7-trimethyl-
Formula:
MW:
CAS#:
Comments: in-silico spectrum 3
Num peaks: 35
57.00 564.77
411.00 2415.23
412.00 2518.22
413.00 2985.54
414.00 3191.63
415.00 3091.42
416.00 2960.19
417.00 2953.06
418.00 2755.45
419.00 2499.71
420.00 7420.58
421.00 9643.54
422.00 13287.92
423.00 14827.43
424.00 14611.05
425.00 14191.98
426.00 13480.29
427.00 12670.65
428.00 11726.64
431.00 597.36
432.00 1089.34
433.00 1328.09
434.00 1054.29
435.00 1408.17
436.00 1127.54
437.00 1089.56
447.00 7690.58
448.00 6713.00
449.00 13692.79
450.00 20542.39
451.00 21576.94
452.00 21151.59
453.00 20308.95
454.00 19342.24
455.00 18051.67
Name: Cyclopropane, 1-(1,2-dimethylpropyl)-1-methyl-2-nonyl-
Formula:
MW:
CAS#:
Comments: in-silico spectrum 4
Num peaks: 35
57.00 897.20
411.00 3817.59
412.00 4014.28
413.00 4726.43
414.00 5074.23
415.00 4896.67
416.00 4647.46
417.00 4646.55
418.00 4341.81
419.00 3924.10
420.00 11895.43
421.00 15467.23
422.00 21402.51
423.00 23857.37
424.00 23527.98
425.00 22835.03
426.00 21679.70
427.00 20349.92
428.00 18857.04
431.00 957.77
432.00 1707.49
433.00 2097.82
434.00 1663.83
435.00 2207.16
436.00 1773.21
437.00 1733.69
447.00 12339.08
448.00 10757.57
449.00 22033.91
450.00 33053.73
451.00 34703.60
452.00 34005.57
453.00 32660.06
454.00 31117.40
455.00 29084.29
Name: Z-14-Nonacosane
Formula:
MW:
CAS#:
Comments: in-silico spectrum 5
Num peaks: 35
57.00 1064.93
411.00 4512.98
412.00 4765.67
413.00 5589.55
414.00 6017.47
415.00 5792.10
416.00 5471.85
417.00 5475.98
418.00 5122.63
419.00 4621.35
420.00 14173.02
421.00 18431.51
422.00 25566.49
423.00 28478.09
424.00 28095.19
425.00 27260.58
426.00 25872.62
427.00 24268.72
428.00 22503.82
431.00 1141.52
432.00 2008.01
433.00 2478.00
434.00 1964.14
435.00 2595.62
436.00 2087.09
437.00 2058.36
447.00 14708.62
448.00 12815.60
449.00 26305.39
450.00 39459.51
451.00 41415.52
452.00 40571.29
453.00 38974.70
454.00 37143.36
455.00 34745.78
Name: 11-Methylpentacosane
Formula:
MW:
CAS#:
Comments: in-silico spectrum 6
Num peaks: 35
57.00 1035.61
411.00 4396.01
412.00 4639.89
413.00 5445.06
414.00 5858.10
415.00 5641.18
416.00 5333.65
417.00 5337.47
418.00 4991.93
419.00 4504.26
420.00 13787.39
421.00 17929.85
422.00 24859.67
423.00 27694.51
424.00 27321.29
425.00 26509.30
426.00 25162.41
427.00 23604.79
428.00 21885.70
431.00 1109.48
432.00 1958.22
433.00 2414.07
434.00 1913.80
435.00 2531.12
436.00 2034.98
437.00 2003.02
447.00 14306.42
448.00 12467.15
449.00 25581.26
450.00 38373.60
451.00 40277.73
452.00 39459.68
453.00 37904.77
454.00 36121.69
455.00 33785.46
Name: Cyclopentane, (4-octyldodecyl)-
Formula:
MW:
CAS#:
Comments: in-silico spectrum 7
Num peaks: 35
57.00 1147.34
411.00 4864.35
412.00 5139.12
413.00 6025.57
414.00 6487.01
415.00 6243.08
416.00 5896.43
417.00 5901.11
418.00 5520.90
419.00 4979.63
420.00 15283.41
421.00 19877.41
422.00 27574.90
423.00 30715.56
424.00 30304.11
425.00 29401.13
426.00 27904.85
427.00 26173.29
428.00 24270.52
431.00 1229.77
432.00 2163.76
433.00 2670.42
434.00 2117.05
435.00 2797.29
436.00 2249.74
437.00 2218.15
447.00 15860.88
448.00 13819.47
449.00 28371.08
450.00 42558.89
451.00 44668.82
452.00 43759.53
453.00 42036.58
454.00 40060.85
455.00 37476.57
Name: 3-Ethyl-3-methylheptadecane
Formula:
MW:
CAS#:
Comments: in-silico spectrum 8
Num peaks: 35
57.00 848.06
411.00 3608.68
412.00 3797.24
413.00 4468.51
414.00 4798.59
415.00 4629.12
416.00 4391.08
417.00 4391.31
418.00 4103.39
419.00 3707.88
420.00 11256.47
421.00 14635.91
422.00 20258.22
423.00 22579.31
424.00 22268.85
425.00 21612.19
426.00 20518.29
427.00 19258.33
428.00 17847.13
431.00 906.18
432.00 1613.47
433.00 1983.29
434.00 1572.87
435.00 2085.22
436.00 1675.47
437.00 1639.89
447.00 11676.85
448.00 10179.42
449.00 20855.11
450.00 31284.24
451.00 32843.80
452.00 32181.55
453.00 30909.44
454.00 29451.19
455.00 27529.69
Name: 5-Ethyl-5-methylheptadecane
Formula:
MW:
CAS#:
Comments: in-silico spectrum 9
Num peaks: 35
57.00 852.81
411.00 3628.57
412.00 3818.09
413.00 4493.04
414.00 4825.02
415.00 4654.62
416.00 4415.26
417.00 4415.43
418.00 4125.78
419.00 3728.35
420.00 11318.46
421.00 14716.41
422.00 20369.73
423.00 22703.63
424.00 22391.41
425.00 21731.19
426.00 20631.14
427.00 19364.20
428.00 17945.24
431.00 911.09
432.00 1622.42
433.00 1994.26
434.00 1581.57
435.00 2096.73
436.00 1684.67
437.00 1648.74
447.00 11741.21
448.00 10235.42
449.00 20969.99
450.00 31456.41
451.00 33024.59
452.00 32358.62
453.00 31079.65
454.00 29613.26
455.00 27681.22
Name: Tetracosane, 11-decyl-
Formula:
MW:
CAS#:
Comments: in-silico spectrum 10
Num peaks: 35
57.00 1237.16
411.00 5240.51
412.00 5541.60
413.00 6492.00
414.00 6993.18
415.00 6726.38
416.00 6346.62
417.00 6353.09
418.00 5945.59
419.00 5360.26
420.00 16491.38
421.00 21448.76
422.00 29769.75
423.00 33155.24
424.00 32714.01
425.00 31737.60
426.00 30120.51
427.00 28246.82
428.00 26197.30
431.00 1327.19
432.00 2328.27
433.00 2876.43
434.00 2279.85
435.00 3010.65
436.00 2421.28
437.00 2391.75
447.00 17115.23
448.00 14910.94
449.00 30625.72
450.00 45939.75
451.00 48214.16
452.00 47230.58
453.00 45372.71
454.00 43242.69
455.00 40460.42
Name: Nonacosane, 2-methyl-
Formula:
MW:
CAS#:
Comments: in-silico spectrum 11
Num peaks: 35
57.00 1115.84
411.00 4732.14
412.00 4998.88
413.00 5861.74
414.00 6309.93
415.00 6072.99
416.00 5736.80
417.00 5741.67
418.00 5371.35
419.00 4844.84
420.00 14863.97
421.00 19330.89
422.00 26814.83
423.00 29868.81
424.00 29468.46
425.00 28591.00
426.00 27136.48
427.00 25453.01
428.00 23602.39
431.00 1196.10
432.00 2105.49
433.00 2598.03
434.00 2059.57
435.00 2721.88
436.00 2188.77
437.00 2157.78
447.00 15424.84
448.00 13440.18
449.00 27589.84
450.00 41386.42
451.00 43437.86
452.00 42553.80
453.00 40878.22
454.00 38957.00
455.00 36443.28
Name: Heptane, 2,4-dimethyl-
Formula:
MW:
CAS#:
Comments: in-silico spectrum 12
Num peaks: 35
57.00 380.86
411.00 1634.29
412.00 1688.09
413.00 2019.51
414.00 2146.84
415.00 2089.26
416.00 2019.61
417.00 2011.84
418.00 1873.20
419.00 1706.66
420.00 4941.64
421.00 6417.75
422.00 8798.33
423.00 9829.75
424.00 9678.65
425.00 9407.27
426.00 8943.91
427.00 8419.90
428.00 7782.27
431.00 397.61
432.00 744.59
433.00 901.23
434.00 715.94
435.00 962.91
436.00 768.05
437.00 733.46
447.00 5115.44
448.00 4474.10
449.00 9076.10
450.00 13619.91
451.00 14312.51
452.00 14038.46
453.00 13474.33
454.00 12827.05
455.00 11949.77
Name: 3,3-Diethylheptadecane
Formula:
MW:
CAS#:
Comments: in-silico spectrum 13
Num peaks: 35
57.00 891.52
411.00 3791.59
412.00 3992.55
413.00 4695.61
414.00 5044.34
415.00 4864.55
416.00 4610.91
417.00 4611.94
418.00 4310.50
419.00 3893.46
420.00 11841.70
421.00 15397.49
422.00 21320.26
423.00 23760.54
424.00 23435.58
425.00 22743.05
426.00 21591.08
427.00 20262.82
428.00 18780.02
431.00 953.36
432.00 1693.96
433.00 2083.46
434.00 1652.30
435.00 2189.23
436.00 1759.27
437.00 1724.14
447.00 12284.58
448.00 10708.40
449.00 21946.35
450.00 32921.11
451.00 34560.89
452.00 33862.88
453.00 32525.19
454.00 30991.64
455.00 28973.62
Name: Octane, 3,5-dimethyl-
Formula:
MW:
CAS#:
Comments: in-silico spectrum 14
Num peaks: 35
57.00 445.60
411.00 1909.19
412.00 1981.04
413.00 2359.07
414.00 2515.02
415.00 2441.83
416.00 2349.70
417.00 2341.82
418.00 2182.87
419.00 1984.69
420.00 5818.03
421.00 7558.56
422.00 10388.27
423.00 11599.20
424.00 11425.05
425.00 11101.55
426.00 10549.07
427.00 9923.52
428.00 9177.77
431.00 468.33
432.00 865.51
433.00 1051.15
434.00 834.88
435.00 1118.98
436.00 894.06
437.00 858.61
447.00 6026.32
448.00 5264.99
449.00 10710.73
450.00 16070.30
451.00 16883.82
452.00 16555.49
453.00 15893.24
454.00 15133.00
455.00 14110.62
Name: Decane, 2,4,6-trimethyl-
Formula:
MW:
CAS#:
Comments: in-silico spectrum 15
Num peaks: 35
57.00 579.51
411.00 2478.08
412.00 2584.57
413.00 3063.78
414.00 3275.21
415.00 3172.14
416.00 3036.13
417.00 3029.76
418.00 2826.36
419.00 2563.77
420.00 7618.29
421.00 9900.67
422.00 13644.61
423.00 15225.17
424.00 15003.61
425.00 14572.04
426.00 13841.84
427.00 13009.58
428.00 12041.00
431.00 612.96
432.00 1117.69
433.00 1362.65
434.00 1081.49
435.00 1444.17
436.00 1156.74
437.00 1118.26
447.00 7896.06
448.00 6892.14
449.00 14060.17
450.00 21093.25
451.00 22155.12
452.00 21717.78
453.00 20852.97
454.00 19860.86
455.00 18537.13
Name: Eicosane, 2-cyclohexyl-
Formula:
MW:
CAS#:
Comments: in-silico spectrum 16
Num peaks: 35
57.00 1084.87
411.00 4602.38
412.00 4859.28
413.00 5700.80
414.00 6134.73
415.00 5906.49
416.00 5581.95
417.00 5586.19
418.00 5225.48
419.00 4714.00
420.00 14443.67
421.00 18784.14
422.00 26049.43
423.00 29018.79
424.00 28628.69
425.00 27776.95
426.00 26364.68
427.00 24731.02
428.00 22931.26
431.00 1162.43
432.00 2048.90
433.00 2526.97
434.00 2003.26
435.00 2648.78
436.00 2129.72
437.00 2097.55
447.00 14987.81
448.00 13060.54
449.00 26804.03
450.00 40208.21
451.00 42202.84
452.00 41345.31
453.00 39716.36
454.00 37848.40
455.00 35402.81
Name: Dodecane, 6-cyclohexyl-
Formula:
MW:
CAS#:
Comments: in-silico spectrum 17
Num peaks: 35
57.00 897.64
411.00 3816.67
412.00 4020.63
413.00 4726.75
414.00 5079.22
415.00 4896.80
416.00 4639.20
417.00 4640.77
418.00 4337.94
419.00 3917.32
420.00 11929.96
421.00 15512.79
422.00 21486.19
423.00 23943.59
424.00 23616.93
425.00 22917.93
426.00 21756.35
427.00 20416.26
428.00 18923.80
431.00 960.11
432.00 1704.25
433.00 2096.80
434.00 1662.61
435.00 2202.28
436.00 1770.12
437.00 1735.98
447.00 12376.88
448.00 10788.78
449.00 22115.46
450.00 33175.91
451.00 34826.27
452.00 34122.55
453.00 32775.36
454.00 31230.06
455.00 29199.37
Name: Dodecane
Formula:
MW:
CAS#:
Comments: in-silico spectrum 18
Num peaks: 35
57.00 624.43
411.00 2663.22
412.00 2794.79
413.00 3296.03
414.00 3534.71
415.00 3414.16
416.00 3248.16
417.00 3245.91
418.00 3031.28
419.00 2742.58
420.00 8269.06
421.00 10749.40
422.00 14858.33
423.00 16566.65
424.00 16334.23
425.00 15856.71
426.00 15056.64
427.00 14138.42
428.00 13096.91
431.00 665.67
432.00 1194.25
433.00 1464.07
434.00 1161.40
435.00 1543.23
436.00 1238.66
437.00 1207.63
447.00 8575.53
448.00 7478.66
449.00 15300.85
450.00 22953.23
451.00 24100.94
452.00 23617.76
453.00 22682.52
454.00 21609.11
455.00 20189.64
Name: Cyclopentane, (2-decyldodecyl)-
Formula:
MW:
CAS#:
Comments: in-silico spectrum 19
Num peaks: 35
57.00 1205.66
411.00 5108.18
412.00 5399.93
413.00 6327.79
414.00 6815.17
415.00 6556.46
416.00 6188.25
417.00 6193.77
418.00 5795.88
419.00 5226.29
420.00 16066.80
421.00 20896.99
422.00 28999.07
423.00 32298.95
424.00 31867.96
425.00 30917.22
426.00 29342.34
427.00 27518.58
428.00 25520.48
431.00 1292.78
432.00 2270.31
433.00 2803.84
434.00 2222.62
435.00 2935.42
436.00 2361.00
437.00 2330.51
447.00 16674.79
448.00 14527.37
449.00 29833.86
450.00 44752.84
451.00 46969.76
452.00 46012.29
453.00 44201.63
454.00 42125.59
455.00 39412.71
Name: Octadecane, 6-methyl-
Formula:
MW:
CAS#:
Comments: in-silico spectrum 20
Num peaks: 35
57.00 846.77
411.00 3603.73
412.00 3793.24
413.00 4462.67
414.00 4792.98
415.00 4622.85
416.00 4383.93
417.00 4384.86
418.00 4097.21
419.00 3701.79
420.00 11247.10
421.00 14623.65
422.00 20244.92
423.00 22563.06
424.00 22253.19
425.00 21596.36
426.00 20503.17
427.00 19243.26
428.00 17833.87
431.00 905.05
432.00 1611.07
433.00 1980.45
434.00 1570.45
435.00 2081.63
436.00 1672.76
437.00 1638.13
447.00 11667.61
448.00 10171.52
449.00 20840.54
450.00 31263.05
451.00 32819.87
452.00 32157.58
453.00 30887.15
454.00 29430.08
455.00 27511.77
Name: 5-Methyltricosane
Formula:
MW:
CAS#:
Comments: in-silico spectrum 21
Num peaks: 35
57.00 971.22
411.00 4126.02
412.00 4351.49
413.00 5110.31
414.00 5495.13
415.00 5294.28
416.00 5010.03
417.00 5012.83
418.00 4687.08
419.00 4230.74
420.00 12922.27
421.00 16803.94
422.00 23288.26
423.00 25947.02
424.00 25595.57
425.00 24836.23
426.00 23575.76
427.00 22119.36
428.00 20505.91
431.00 1039.85
432.00 1840.00
433.00 2266.28
434.00 1796.83
435.00 2377.92
436.00 1911.55
437.00 1878.63
447.00 13407.76
448.00 11685.25
449.00 23966.99
450.00 35952.29
451.00 37738.05
452.00 36972.96
453.00 35515.09
454.00 33842.81
455.00 31649.19
Name: Dodecane, 2,6,11-trimethyl-
Formula:
MW:
CAS#:
Comments: in-silico spectrum 22
Num peaks: 35
57.00 649.38
411.00 2772.89
412.00 2901.26
413.00 3429.59
414.00 3672.75
415.00 3551.66
416.00 3388.80
417.00 3383.99
418.00 3158.75
419.00 2861.59
420.00 8569.00
421.00 11137.86
422.00 15374.50
423.00 17148.00
424.00 16903.22
425.00 16412.92
426.00 15587.15
427.00 14642.77
428.00 13558.67
431.00 689.62
432.00 1246.55
433.00 1524.27
434.00 1209.41
435.00 1611.02
436.00 1291.81
437.00 1254.38
447.00 8884.21
448.00 7751.02
449.00 15836.97
450.00 23758.47
451.00 24949.84
452.00 24453.46
453.00 23482.44
454.00 22368.24
455.00 20888.86
Name: 13,17,21-Trimethylpentatriacontane
Formula:
MW:
CAS#:
Comments: in-silico spectrum 23
Num peaks: 35
57.00 1375.03
411.00 5821.08
412.00 6158.70
413.00 7211.44
414.00 7770.82
415.00 7471.82
416.00 7045.79
417.00 7053.89
418.00 6602.52
419.00 5951.09
420.00 18335.32
421.00 23848.14
422.00 33109.80
423.00 36872.07
424.00 36382.97
425.00 35295.75
426.00 33496.11
427.00 31409.46
428.00 29132.84
431.00 1475.52
432.00 2584.14
433.00 3194.46
434.00 2531.82
435.00 3342.06
436.00 2688.10
437.00 2658.05
447.00 19030.09
448.00 16578.09
449.00 34058.92
450.00 51090.01
451.00 53617.63
452.00 52522.62
453.00 50457.33
454.00 48090.13
455.00 45000.43
Name: Tridecane, 3-cyclohexyl-
Formula:
MW:
CAS#:
Comments: in-silico spectrum 24
Num peaks: 35
57.00 918.86
411.00 3906.11
412.00 4115.51
413.00 4837.65
414.00 5198.83
415.00 5011.84
416.00 4747.27
417.00 4748.94
418.00 4439.32
419.00 4008.56
420.00 12212.99
421.00 15880.94
422.00 21997.82
423.00 24513.19
424.00 24179.21
425.00 23463.22
426.00 22273.75
427.00 20901.15
428.00 19373.73
431.00 982.97
432.00 1743.83
433.00 2145.89
434.00 1701.53
435.00 2253.57
436.00 1811.31
437.00 1776.88
447.00 12670.63
448.00 11044.56
449.00 22641.71
450.00 33965.09
451.00 35654.53
452.00 34933.72
453.00 33554.78
454.00 31972.86
455.00 29894.79
Name: 13-Methylheptacosane
Formula:
MW:
CAS#:
Comments: in-silico spectrum 25
Num peaks: 35
57.00 1089.08
411.00 4619.97
412.00 4879.22
413.00 5722.72
414.00 6159.30
415.00 5929.01
416.00 5602.08
417.00 5606.65
418.00 5244.75
419.00 4731.12
420.00 14505.44
421.00 18864.38
422.00 26164.18
423.00 29145.14
424.00 28753.89
425.00 27898.17
426.00 26479.44
427.00 24837.73
428.00 23030.98
431.00 1167.28
432.00 2056.25
433.00 2536.67
434.00 2010.86
435.00 2658.20
436.00 2137.35
437.00 2106.17
447.00 15052.37
448.00 13116.09
449.00 26921.31
450.00 40383.55
451.00 42385.94
452.00 41523.84
453.00 39888.49
454.00 38013.34
455.00 35558.86
Name: 3-Ethyl-3-methylnonadecane
Formula:
MW:
CAS#:
Comments: in-silico spectrum 26
Num peaks: 35
57.00 901.54
411.00 3833.53
412.00 4037.69
413.00 4747.54
414.00 5100.89
415.00 4918.30
416.00 4660.71
417.00 4661.92
418.00 4357.48
419.00 3935.60
420.00 11977.99
421.00 15575.01
422.00 21569.07
423.00 24036.73
424.00 23708.52
425.00 23007.51
426.00 21841.77
427.00 20497.12
428.00 18998.12
431.00 964.20
432.00 1712.14
433.00 2106.39
434.00 1670.34
435.00 2212.73
436.00 1778.35
437.00 1743.46
447.00 12426.40
448.00 10831.47
449.00 22201.76
450.00 33304.10
451.00 34962.14
452.00 34255.60
453.00 32902.77
454.00 31351.85
455.00 29311.82
Name: Decane, 2,6,6-trimethyl-
Formula:
MW:
CAS#:
Comments: in-silico spectrum 27
Num peaks: 35
57.00 573.78
411.00 2452.92
412.00 2556.65
413.00 3032.11
414.00 3240.49
415.00 3139.26
416.00 3006.49
417.00 2999.38
418.00 2798.06
419.00 2539.17
420.00 7533.15
421.00 9790.05
422.00 13488.02
423.00 15051.05
424.00 14831.45
425.00 14406.23
426.00 13684.17
427.00 12862.64
428.00 11904.05
431.00 606.16
432.00 1106.54
433.00 1348.90
434.00 1070.58
435.00 1430.12
436.00 1145.47
437.00 1106.11
447.00 7807.50
448.00 6814.77
449.00 13899.43
450.00 20852.10
451.00 21902.82
452.00 21471.18
453.00 20615.62
454.00 19634.49
455.00 18323.69
Name: 2-Methyltetracosane
Formula:
MW:
CAS#:
Comments: in-silico spectrum 28
Num peaks: 35
57.00 978.14
411.00 4155.18
412.00 4382.66
413.00 5146.47
414.00 5534.29
415.00 5331.58
416.00 5044.95
417.00 5047.93
418.00 4719.88
419.00 4260.15
420.00 13015.82
421.00 16925.66
422.00 23458.29
423.00 26135.99
424.00 25782.20
425.00 25017.14
426.00 23747.39
427.00 22280.05
428.00 20655.26
431.00 1047.32
432.00 1852.78
433.00 2282.16
434.00 1809.48
435.00 2394.31
436.00 1924.90
437.00 1892.15
447.00 13505.00
448.00 11769.87
449.00 24141.60
450.00 36214.38
451.00 38012.78
452.00 37241.96
453.00 35773.49
454.00 34089.35
455.00 31880.31
Name: Undecane, 5,7-dimethyl-
Formula:
MW:
CAS#:
Comments: in-silico spectrum 29
Num peaks: 35
57.00 625.20
411.00 2669.63
412.00 2793.32
413.00 3301.92
414.00 3536.16
415.00 3419.97
416.00 3263.07
417.00 3258.04
418.00 3041.31
419.00 2755.10
420.00 8250.00
421.00 10723.06
422.00 14801.62
423.00 16509.60
424.00 16273.65
425.00 15801.71
426.00 15006.52
427.00 14097.40
428.00 13053.47
431.00 663.99
432.00 1200.35
433.00 1467.71
434.00 1164.73
435.00 1551.30
436.00 1243.61
437.00 1207.50
447.00 8553.48
448.00 7462.19
449.00 15247.03
450.00 22873.07
451.00 24020.73
452.00 23542.59
453.00 22607.91
454.00 21534.94
455.00 20110.58
Name: Octane, 2,6,6-trimethyl-
Formula:
MW:
CAS#:
Comments: in-silico spectrum 30
Num peaks: 35
57.00 475.90
411.00 2037.84
412.00 2113.16
413.00 2518.03
414.00 2683.17
415.00 2605.61
416.00 2508.43
417.00 2500.17
418.00 2330.24
419.00 2119.42
420.00 6204.59
421.00 8060.76
422.00 11075.58
423.00 12366.73
424.00 12181.09
425.00 11836.92
426.00 11248.14
427.00 10582.06
428.00 9786.28
431.00 499.29
432.00 923.86
433.00 1122.01
434.00 890.74
435.00 1194.47
436.00 954.72
437.00 916.23
447.00 6426.39
448.00 5614.85
449.00 11419.72
450.00 17134.42
451.00 18002.03
452.00 17652.91
453.00 16945.91
454.00 16135.81
455.00 15044.02
Name: 3,3-Diethylpentadecane
Formula:
MW:
CAS#:
Comments: in-silico spectrum 31
Num peaks: 35
57.00 841.73
411.00 3582.09
412.00 3768.36
413.00 4435.50
414.00 4762.53
415.00 4594.98
416.00 4359.70
417.00 4359.68
418.00 4073.75
419.00 3681.30
420.00 11169.02
421.00 14521.92
422.00 20097.96
423.00 22401.57
424.00 22093.12
425.00 21442.05
426.00 20357.04
427.00 19107.75
428.00 17706.80
431.00 899.29
432.00 1601.98
433.00 1968.68
434.00 1561.40
435.00 2070.42
436.00 1663.33
437.00 1627.61
447.00 11585.66
448.00 10100.43
449.00 20690.63
450.00 31037.63
451.00 32585.63
452.00 31928.95
453.00 30666.54
454.00 29219.30
455.00 27311.80
Name: Hexacontane
Formula:
MW:
CAS#:
Comments: in-silico spectrum 32
Num peaks: 35
57.00 1926.78
411.00 8135.02
412.00 8633.85
413.00 10080.05
414.00 10885.30
415.00 10445.44
416.00 9817.97
417.00 9833.98
418.00 9213.80
419.00 8292.29
420.00 25764.54
421.00 33517.87
422.00 46613.73
423.00 51888.06
424.00 51211.63
425.00 49672.57
426.00 47127.14
427.00 44168.31
428.00 40986.93
431.00 2074.16
432.00 3596.66
433.00 4460.83
434.00 3536.34
435.00 4654.00
436.00 3745.94
437.00 3722.23
447.00 26750.20
448.00 23293.12
449.00 47929.06
450.00 71894.53
451.00 75440.62
452.00 73887.09
453.00 70990.20
454.00 67670.91
455.00 63357.23
Name: Undecane, 3-ethyl-
Formula:
MW:
CAS#:
Comments: in-silico spectrum 33
Num peaks: 35
57.00 637.29
411.00 2720.08
412.00 2847.85
413.00 3364.85
414.00 3604.46
415.00 3485.12
416.00 3323.05
417.00 3318.70
418.00 3098.41
419.00 2805.97
420.00 8414.57
421.00 10937.18
422.00 15101.51
423.00 16842.59
424.00 16603.09
425.00 16120.88
426.00 15308.93
427.00 14380.19
428.00 13316.54
431.00 677.57
432.00 1222.13
433.00 1495.39
434.00 1186.43
435.00 1579.57
436.00 1266.68
437.00 1231.16
447.00 8724.21
448.00 7610.79
449.00 15554.96
450.00 23334.89
451.00 24504.68
452.00 24016.28
453.00 23063.32
454.00 21969.41
455.00 20518.47
Name: Tridecane, 6-cyclohexyl-
Formula:
MW:
CAS#:
Comments: in-silico spectrum 34
Num peaks: 35
57.00 929.71
411.00 3951.71
412.00 4164.44
413.00 4894.26
414.00 5260.24
415.00 5070.35
416.00 4801.71
417.00 4803.70
418.00 4490.75
419.00 4054.59
420.00 12360.27
421.00 16072.67
422.00 22266.08
423.00 24811.18
424.00 24473.65
425.00 23748.53
426.00 22544.36
427.00 21154.32
428.00 19609.11
431.00 994.75
432.00 1763.77
433.00 2170.80
434.00 1721.20
435.00 2279.23
436.00 1832.09
437.00 1797.95
447.00 12823.69
448.00 11177.68
449.00 22917.07
450.00 34378.26
451.00 36087.55
452.00 35357.67
453.00 33962.27
454.00 32361.57
455.00 30259.51
Name: Nonadecane, 3-methyl-
Formula:
MW:
CAS#:
Comments: in-silico spectrum 35
Num peaks: 35
57.00 861.81
411.00 3666.87
412.00 3861.08
413.00 4540.95
414.00 4878.16
415.00 4704.10
416.00 4459.30
417.00 4460.40
418.00 4168.43
419.00 3765.47
420.00 11451.44
421.00 14889.76
422.00 20617.23
423.00 22976.71
424.00 22661.95
425.00 21992.46
426.00 20878.58
427.00 19594.44
428.00 18160.39
431.00 921.53
432.00 1638.54
433.00 2014.94
434.00 1597.81
435.00 2117.24
436.00 1701.45
437.00 1667.35
447.00 11879.96
448.00 10356.03
449.00 21222.81
450.00 31836.36
451.00 33420.93
452.00 32745.98
453.00 31452.74
454.00 29969.38
455.00 28017.88
Name: Nonane, 3,7-dimethyl-
Formula:
MW:
CAS#:
Comments: in-silico spectrum 36
Num peaks: 35
57.00 541.31
411.00 2314.98
412.00 2414.07
413.00 2861.74
414.00 3059.38
415.00 2963.09
416.00 2836.95
417.00 2830.16
418.00 2640.86
419.00 2395.76
420.00 7114.33
421.00 9245.74
422.00 12740.63
423.00 14216.30
424.00 14008.94
425.00 13607.12
426.00 12924.55
427.00 12148.22
428.00 11243.16
431.00 572.58
432.00 1043.98
433.00 1273.00
434.00 1010.49
435.00 1349.45
436.00 1080.55
437.00 1044.44
447.00 7373.56
448.00 6435.91
449.00 13128.65
450.00 19696.20
451.00 20687.74
452.00 20279.63
453.00 19472.01
454.00 18545.16
455.00 17308.08
Name: Undecane, 2,7-dimethyl-
Formula:
MW:
CAS#:
Comments: in-silico spectrum 37
Num peaks: 35
57.00 575.06
411.00 2458.74
412.00 2566.93
413.00 3039.91
414.00 3251.91
415.00 3148.01
416.00 3010.60
417.00 3004.27
418.00 2803.42
419.00 2542.10
420.00 7570.29
421.00 9838.41
422.00 13565.17
423.00 15134.61
424.00 14915.32
425.00 14486.00
426.00 13758.41
427.00 12929.57
428.00 11968.43
431.00 609.37
432.00 1107.90
433.00 1352.00
434.00 1073.22
435.00 1431.87
436.00 1146.95
437.00 1110.08
447.00 7846.94
448.00 6847.83
449.00 13976.93
450.00 20968.13
451.00 22022.53
452.00 21586.76
453.00 20727.91
454.00 19742.30
455.00 18429.31
Name: Octane, 2,3,3-trimethyl-
Formula:
MW:
CAS#:
Comments: in-silico spectrum 38
Num peaks: 35
57.00 472.18
411.00 2021.73
412.00 2097.00
413.00 2497.98
414.00 2662.71
415.00 2585.63
416.00 2488.78
417.00 2479.99
418.00 2312.08
419.00 2102.57
420.00 6157.41
421.00 7999.56
422.00 10992.24
423.00 12273.76
424.00 12089.55
425.00 11748.29
426.00 11162.72
427.00 10501.57
428.00 9712.03
431.00 495.86
432.00 916.25
433.00 1113.15
434.00 884.10
435.00 1185.15
436.00 946.91
437.00 908.89
447.00 6377.26
448.00 5571.43
449.00 11333.60
450.00 17004.90
451.00 17866.33
452.00 17519.87
453.00 16818.23
454.00 16013.73
455.00 14930.73
Name: Decane, 5,6-dimethyl-
Formula:
MW:
CAS#:
Comments: in-silico spectrum 39
Num peaks: 35
57.00 572.66
411.00 2446.56
412.00 2554.96
413.00 3024.92
414.00 3236.56
415.00 3132.78
416.00 2994.75
417.00 2988.65
418.00 2789.40
419.00 2528.99
420.00 7536.84
421.00 9795.32
422.00 13508.24
423.00 15070.04
424.00 14852.15
425.00 14424.31
426.00 13699.52
427.00 12873.25
428.00 11916.84
431.00 606.67
432.00 1101.74
433.00 1345.25
434.00 1067.62
435.00 1424.24
436.00 1141.01
437.00 1104.82
447.00 7812.56
448.00 6817.65
449.00 13917.38
450.00 20878.94
451.00 21928.58
452.00 21494.28
453.00 20639.56
454.00 19658.17
455.00 18351.66
Name: Cycloundecane, 1,1,2-trimethyl-
Formula:
MW:
CAS#:
Comments: in-silico spectrum 40
Num peaks: 35
57.00 653.46
411.00 2785.31
412.00 2918.17
413.00 3445.39
414.00 3693.03
415.00 3569.44
416.00 3399.86
417.00 3395.68
418.00 3171.32
419.00 2871.17
420.00 8627.36
421.00 11215.35
422.00 15492.31
423.00 17276.56
424.00 17032.41
425.00 16536.31
426.00 15702.37
427.00 14747.32
428.00 13658.55
431.00 694.72
432.00 1249.63
433.00 1530.90
434.00 1214.43
435.00 1616.03
436.00 1296.56
437.00 1260.84
447.00 8945.99
448.00 7802.63
449.00 15955.68
450.00 23935.63
451.00 25135.46
452.00 24633.85
453.00 23656.63
454.00 22535.10
455.00 21049.68
Name: Heptadecane, 2-methyl-
Formula:
MW:
CAS#:
Comments: in-silico spectrum 41
Num peaks: 35
57.00 788.85
411.00 3359.77
412.00 3532.54
413.00 4159.56
414.00 4465.02
415.00 4308.77
416.00 4090.91
417.00 4090.45
418.00 3821.17
419.00 3454.21
420.00 10466.05
421.00 13607.13
422.00 18827.22
423.00 20986.22
424.00 20695.74
425.00 20086.92
426.00 19071.26
427.00 17902.53
428.00 16588.64
431.00 842.23
432.00 1503.68
433.00 1846.51
434.00 1464.50
435.00 1942.87
436.00 1560.74
437.00 1525.86
447.00 10856.19
448.00 9465.43
449.00 19383.61
450.00 29077.80
451.00 30527.78
452.00 29913.26
453.00 28730.40
454.00 27373.49
455.00 25584.26
Name: Octatriacontane, 3,5-dimethyl-
Formula:
MW:
CAS#:
Comments: in-silico spectrum 42
Num peaks: 35
57.00 1402.76
411.00 5936.09
412.00 6283.29
413.00 7353.91
414.00 7927.10
415.00 7619.86
416.00 7181.72
417.00 7190.34
418.00 6731.22
419.00 6065.90
420.00 18713.22
421.00 24340.40
422.00 33801.91
423.00 37640.42
424.00 37142.52
425.00 36031.55
426.00 34192.70
427.00 32060.16
428.00 29738.49
431.00 1506.09
432.00 2633.53
433.00 3257.29
434.00 2581.63
435.00 3406.37
436.00 2739.92
437.00 2711.40
447.00 19423.37
448.00 16919.30
449.00 34768.97
450.00 52154.25
451.00 54733.35
452.00 53613.90
453.00 51506.75
454.00 49091.41
455.00 45941.43
Name: Cyclopropane, 1-methyl-1-(1-methylethyl)-2-nonyl-
Formula:
MW:
CAS#:
Comments: in-silico spectrum 43
Num peaks: 35
57.00 825.21
411.00 3512.69
412.00 3690.58
413.00 4347.91
414.00 4666.27
415.00 4504.57
416.00 4279.06
417.00 4276.89
418.00 3996.07
419.00 3613.21
420.00 10930.11
421.00 14211.21
422.00 19656.47
423.00 21913.22
424.00 21608.85
425.00 20974.51
426.00 19913.76
427.00 18694.82
428.00 17321.17
431.00 880.18
432.00 1572.22
433.00 1930.39
434.00 1531.13
435.00 2032.55
436.00 1632.39
437.00 1593.99
447.00 11336.76
448.00 9884.53
449.00 20238.21
450.00 30360.05
451.00 31876.84
452.00 31236.84
453.00 30000.17
454.00 28581.93
455.00 26710.52
Name: Hexadecane, 8-hexyl-8-pentyl-
Formula:
MW:
CAS#:
Comments: in-silico spectrum 44
Num peaks: 35
57.00 1106.68
411.00 4693.27
412.00 4956.64
413.00 5813.63
414.00 6257.09
415.00 6023.22
416.00 5690.87
417.00 5695.46
418.00 5327.95
419.00 4806.17
420.00 14735.76
421.00 19164.23
422.00 26579.89
423.00 29608.53
424.00 29211.37
425.00 28342.07
426.00 26900.71
427.00 25232.66
428.00 23397.35
431.00 1185.98
432.00 2088.70
433.00 2576.96
434.00 2042.85
435.00 2700.31
436.00 2171.22
437.00 2139.46
447.00 15291.29
448.00 13323.83
449.00 27349.02
450.00 41024.60
451.00 43059.61
452.00 42183.80
453.00 40522.33
454.00 38617.73
455.00 36124.20
Name: 4,4-Dipropylheptane
Formula:
MW:
CAS#:
Comments: in-silico spectrum 45
Num peaks: 35
57.00 622.83
411.00 2655.78
412.00 2782.69
413.00 3285.82
414.00 3521.17
415.00 3403.69
416.00 3242.00
417.00 3238.49
418.00 3023.88
419.00 2737.40
420.00 8227.07
421.00 10694.56
422.00 14772.93
423.00 16474.80
424.00 16242.05
425.00 15768.05
426.00 14974.22
427.00 14063.41
428.00 13024.76
431.00 662.05
432.00 1192.07
433.00 1459.88
434.00 1158.26
435.00 1540.79
436.00 1236.14
437.00 1202.70
447.00 8531.25
448.00 7441.09
449.00 15215.02
450.00 22824.39
451.00 23968.90
452.00 23489.77
453.00 22558.25
454.00 21489.18
455.00 20073.06
Name: 2-methyloctacosane
Formula:
MW:
CAS#:
Comments: in-silico spectrum 46
Num peaks: 35
57.00 1079.60
411.00 4580.34
412.00 4836.73
413.00 5673.54
414.00 6105.84
415.00 5877.94
416.00 5554.79
417.00 5559.15
418.00 5199.96
419.00 4691.02
420.00 14377.67
421.00 18697.97
422.00 25931.56
423.00 28886.53
424.00 28498.43
425.00 27650.56
426.00 26244.68
427.00 24618.08
428.00 22826.90
431.00 1156.95
432.00 2039.01
433.00 2514.91
434.00 1993.77
435.00 2635.70
436.00 2119.34
437.00 2087.89
447.00 14919.65
448.00 13000.66
449.00 26682.45
450.00 40025.41
451.00 42010.26
452.00 41156.03
453.00 39534.93
454.00 37676.11
455.00 35242.56
Name: Cyclohexane, 1,1-dimethyl-2-propyl-
Formula:
MW:
CAS#:
Comments: in-silico spectrum 47
Num peaks: 35
57.00 522.86
411.00 2235.11
412.00 2327.34
413.00 2762.16
414.00 2951.25
415.00 2860.64
416.00 2741.69
417.00 2733.65
418.00 2550.92
419.00 2315.22
420.00 6854.02
421.00 8907.54
422.00 12266.50
423.00 13690.47
424.00 13489.68
425.00 13103.63
426.00 12446.61
427.00 11701.21
428.00 10828.05
431.00 552.01
432.00 1008.61
433.00 1229.11
434.00 976.06
435.00 1304.61
436.00 1044.32
437.00 1006.83
447.00 7102.72
448.00 6200.05
449.00 12641.95
450.00 18965.79
451.00 19923.46
452.00 19532.24
453.00 18753.09
454.00 17858.85
455.00 16663.81
Name: Tricosane
Formula:
MW:
CAS#:
Comments: in-silico spectrum 48
Num peaks: 35
57.00 999.41
411.00 4239.00
412.00 4477.83
413.00 5251.17
414.00 5652.39
415.00 5440.56
416.00 5139.80
417.00 5143.94
418.00 4812.15
419.00 4340.50
420.00 13313.83
421.00 17314.85
422.00 24017.00
423.00 26752.76
424.00 26393.96
425.00 25608.23
426.00 24305.67
427.00 22798.35
428.00 21140.44
431.00 1071.30
432.00 1886.44
433.00 2327.55
434.00 1845.26
435.00 2438.51
436.00 1960.79
437.00 1932.86
447.00 13816.26
448.00 12038.48
449.00 24711.47
450.00 37068.57
451.00 38906.39
452.00 38114.50
453.00 36613.85
454.00 34892.97
455.00 32640.84
Name: Dodecane, 2-methyl-6-propyl-
Formula:
MW:
CAS#:
Comments: in-silico spectrum 49
Num peaks: 35
57.00 728.69
411.00 3107.58
412.00 3259.18
413.00 3845.19
414.00 4122.71
415.00 3982.82
416.00 3790.86
417.00 3787.89
418.00 3537.10
419.00 3200.89
420.00 9640.85
421.00 12532.38
422.00 17319.70
423.00 19312.07
424.00 19040.39
425.00 18484.21
426.00 17552.04
427.00 16482.51
428.00 15267.41
431.00 776.03
432.00 1393.83
433.00 1707.98
434.00 1354.82
435.00 1801.24
436.00 1445.74
437.00 1408.62
447.00 9997.72
448.00 8719.75
449.00 17836.02
450.00 26756.95
451.00 28095.33
452.00 27533.05
453.00 26442.10
454.00 25190.02
455.00 23533.83
Name: Triacontane, 11,20-didecyl-
Formula:
MW:
CAS#:
Comments: in-silico spectrum 50
Num peaks: 35
57.00 1667.17
411.00 7046.55
412.00 7469.08
413.00 8730.19
414.00 9419.97
415.00 9046.77
416.00 8513.41
417.00 8525.89
418.00 7984.88
419.00 7190.88
420.00 22269.90
421.00 28969.55
422.00 40262.09
423.00 44824.73
424.00 44237.04
425.00 42910.33
426.00 40715.50
427.00 38166.62
428.00 35410.84
431.00 1792.69
432.00 3119.92
433.00 3865.08
434.00 3063.37
435.00 4036.95
436.00 3248.12
437.00 3221.85
447.00 23118.95
448.00 20134.39
449.00 41405.80
450.00 62108.65
451.00 65174.98
452.00 63837.29
453.00 61331.68
454.00 58460.41
455.00 54723.11
Name: Tetracosane, 12-decyl-12-nonyl-
Formula:
MW:
CAS#:
Comments: in-silico spectrum 51
Num peaks: 35
57.00 1478.93
411.00 6254.37
412.00 6623.75
413.00 7748.44
414.00 8355.55
415.00 8029.18
416.00 7562.67
417.00 7572.55
418.00 7090.22
419.00 6387.80
420.00 19735.63
421.00 25671.56
422.00 35660.87
423.00 39707.56
424.00 39184.32
425.00 38011.29
426.00 36069.74
427.00 33816.73
428.00 31370.74
431.00 1588.72
432.00 2772.45
433.00 3431.47
434.00 2719.74
435.00 3586.71
436.00 2885.29
437.00 2857.70
447.00 20485.80
448.00 17842.92
449.00 36678.54
450.00 55017.48
451.00 57737.27
452.00 56554.76
453.00 54333.04
454.00 51787.28
455.00 48468.91
Name: Hexadecane, 4-methyl-
Formula:
MW:
CAS#:
Comments: in-silico spectrum 52
Num peaks: 35
57.00 771.48
411.00 3286.58
412.00 3453.61
413.00 4068.44
414.00 4366.04
415.00 4214.42
416.00 4003.45
417.00 4002.38
418.00 3738.65
419.00 3380.37
420.00 10228.53
421.00 13297.82
422.00 18394.27
423.00 20505.24
424.00 20220.40
425.00 19626.42
426.00 18634.71
427.00 17494.18
428.00 16208.87
431.00 823.27
432.00 1471.65
433.00 1806.36
434.00 1432.66
435.00 1901.64
436.00 1527.19
437.00 1491.99
447.00 10609.09
448.00 9250.72
449.00 18938.92
450.00 28410.76
451.00 29828.69
452.00 29228.96
453.00 28072.70
454.00 26746.07
455.00 24995.54
Name: Heptane, 2,2,3,3,5,6,6-heptamethyl-
Formula:
MW:
CAS#:
Comments: in-silico spectrum 53
Num peaks: 35
57.00 492.32
411.00 2106.05
412.00 2187.10
413.00 2601.31
414.00 2776.34
415.00 2693.26
416.00 2587.95
417.00 2579.00
418.00 2405.65
419.00 2186.74
420.00 6430.05
421.00 8355.63
422.00 11491.97
423.00 12828.58
424.00 12637.62
425.00 12279.75
426.00 11665.55
427.00 10970.95
428.00 10148.72
431.00 517.39
432.00 951.96
433.00 1158.60
434.00 919.91
435.00 1232.26
436.00 985.42
437.00 946.66
447.00 6661.89
448.00 5817.18
449.00 11846.25
450.00 17773.30
451.00 18672.65
452.00 18308.92
453.00 17576.59
454.00 16736.84
455.00 15609.32
Name: Undecane
Formula:
MW:
CAS#:
Comments: in-silico spectrum 54
Num peaks: 35
57.00 617.57
411.00 2634.32
412.00 2763.21
413.00 3259.97
414.00 3495.23
415.00 3376.81
416.00 3214.14
417.00 3211.41
418.00 2998.82
419.00 2713.80
420.00 8173.37
421.00 10624.71
422.00 14682.79
423.00 16371.92
424.00 16141.49
425.00 15670.27
426.00 14879.86
427.00 13973.46
428.00 12943.10
431.00 657.89
432.00 1181.83
433.00 1448.18
434.00 1148.95
435.00 1527.10
436.00 1225.50
437.00 1194.08
447.00 8476.03
448.00 7392.22
449.00 15120.72
450.00 22683.30
451.00 23818.23
452.00 23341.10
453.00 22416.58
454.00 21355.11
455.00 19950.74
Name: 3-Methylheptacosane
Formula:
MW:
CAS#:
Comments: in-silico spectrum 55
Num peaks: 35
57.00 1078.26
411.00 4574.49
412.00 4830.71
413.00 5666.31
414.00 6098.23
415.00 5870.52
416.00 5547.43
417.00 5551.80
418.00 5193.35
419.00 4684.97
420.00 14360.18
421.00 18675.37
422.00 25900.62
423.00 28851.95
424.00 28464.38
425.00 27617.48
426.00 26213.11
427.00 24588.38
428.00 22799.39
431.00 1155.61
432.00 2036.23
433.00 2511.75
434.00 1991.13
435.00 2632.30
436.00 2116.48
437.00 2085.31
447.00 14901.51
448.00 12984.75
449.00 26650.51
450.00 39977.37
451.00 41959.82
452.00 41106.54
453.00 39487.48
454.00 37630.90
455.00 35200.47
Name: Eicosane, 3-methyl-
Formula:
MW:
CAS#:
Comments: in-silico spectrum 56
Num peaks: 35
57.00 888.70
411.00 3779.87
412.00 3981.84
413.00 4681.13
414.00 5030.01
415.00 4849.39
416.00 4594.84
417.00 4596.38
418.00 4296.14
419.00 3879.95
420.00 11813.75
421.00 15361.32
422.00 21275.32
423.00 23708.41
424.00 23384.71
425.00 22693.00
426.00 21543.04
427.00 20216.43
428.00 18738.25
431.00 950.68
432.00 1688.13
433.00 2076.79
434.00 1646.78
435.00 2181.34
436.00 1753.14
437.00 1719.38
447.00 12256.31
448.00 10683.44
449.00 21898.89
450.00 32850.40
451.00 34484.45
452.00 33787.29
453.00 32453.52
454.00 30923.59
455.00 28912.55
Name: 5-Methyldocosane
Formula:
MW:
CAS#:
Comments: in-silico spectrum 57
Num peaks: 35
57.00 939.26
411.00 3992.10
412.00 4208.48
413.00 4944.29
414.00 5315.13
415.00 5122.21
416.00 4849.45
417.00 4851.79
418.00 4535.88
419.00 4095.03
420.00 12493.39
421.00 16245.78
422.00 22509.37
423.00 25080.79
424.00 24740.16
425.00 24006.90
426.00 22789.29
427.00 21383.04
428.00 19822.01
431.00 1005.33
432.00 1781.33
433.00 2192.97
434.00 1738.79
435.00 2301.89
436.00 1850.29
437.00 1816.97
447.00 12962.25
448.00 11297.63
449.00 23166.80
450.00 34752.06
451.00 36479.11
452.00 35740.32
453.00 34330.49
454.00 32713.24
455.00 30590.33
Name: Hexadecane
Formula:
MW:
CAS#:
Comments: in-silico spectrum 58
Num peaks: 35
57.00 776.31
411.00 3303.04
412.00 3478.83
413.00 4090.81
414.00 4394.98
415.00 4237.76
416.00 4016.67
417.00 4017.74
418.00 3754.84
419.00 3391.49
420.00 10318.95
421.00 13417.43
422.00 18580.07
423.00 20705.91
424.00 20422.61
425.00 19819.00
426.00 18815.18
427.00 17657.54
428.00 16365.74
431.00 830.32
432.00 1475.87
433.00 1815.16
434.00 1439.46
435.00 1906.84
436.00 1532.46
437.00 1502.18
447.00 10705.44
448.00 9331.78
449.00 19125.41
450.00 28689.89
451.00 30117.68
452.00 29508.92
453.00 28343.92
454.00 27007.55
455.00 25249.69
Name: Hexacosane, 13-dodecyl-
Formula:
MW:
CAS#:
Comments: in-silico spectrum 59
Num peaks: 35
57.00 1329.93
411.00 5629.24
412.00 5957.31
413.00 6973.87
414.00 7516.24
415.00 7225.95
416.00 6812.16
417.00 6820.02
418.00 6384.19
419.00 5753.64
420.00 17739.23
421.00 23073.05
422.00 32037.95
423.00 35677.23
424.00 35204.77
425.00 34152.30
426.00 32410.12
427.00 30389.91
428.00 28188.30
431.00 1427.65
432.00 2498.23
433.00 3089.16
434.00 2448.34
435.00 3231.05
436.00 2598.86
437.00 2570.82
447.00 18411.89
448.00 16038.76
449.00 32955.53
450.00 49434.20
451.00 51879.33
452.00 50818.95
453.00 48821.32
454.00 46531.46
455.00 43543.93
Name: 13,17,21-Trimethyltritriacontane
Formula:
MW:
CAS#:
Comments: in-silico spectrum 60
Num peaks: 35
57.00 1385.67
411.00 5865.96
412.00 6206.26
413.00 7267.10
414.00 7830.82
415.00 7529.58
416.00 7100.28
417.00 7108.29
418.00 6653.44
419.00 5997.00
420.00 18477.08
421.00 24032.56
422.00 33365.95
423.00 37157.31
424.00 36664.38
425.00 35568.76
426.00 33755.09
427.00 31652.38
428.00 29358.08
431.00 1486.80
432.00 2604.10
433.00 3219.06
434.00 2551.41
435.00 3367.74
436.00 2708.81
437.00 2678.59
447.00 19177.39
448.00 16706.31
449.00 34322.26
450.00 51485.29
451.00 54032.52
452.00 52928.96
453.00 50847.80
454.00 48462.11
455.00 45348.47
Name: Tetracosane
Formula:
MW:
CAS#:
Comments: in-silico spectrum 61
Num peaks: 35
57.00 1001.10
411.00 4245.83
412.00 4485.46
413.00 5259.67
414.00 5661.92
415.00 5449.29
416.00 5147.53
417.00 5151.81
418.00 4819.70
419.00 4347.10
420.00 13337.53
421.00 17345.81
422.00 24061.23
423.00 26801.60
424.00 26442.39
425.00 25655.06
426.00 24349.95
427.00 22839.46
428.00 21178.92
431.00 1073.26
432.00 1889.19
433.00 2331.29
434.00 1848.10
435.00 2442.21
436.00 1963.78
437.00 1936.12
447.00 13840.93
448.00 12059.84
449.00 24756.67
450.00 37136.20
451.00 38977.11
452.00 38183.58
453.00 36680.33
454.00 34956.59
455.00 32701.02
Name: Hexadecane, 7,9-dimethyl-
Formula:
MW:
CAS#:
Comments: in-silico spectrum 62
Num peaks: 35
57.00 801.09
411.00 3412.38
412.00 3587.28
413.00 4224.62
414.00 4534.51
415.00 4376.17
416.00 4155.31
417.00 4154.77
418.00 3881.26
419.00 3508.66
420.00 10627.32
421.00 13816.83
422.00 19116.10
423.00 21308.85
424.00 21013.65
425.00 20395.43
426.00 19364.58
427.00 18178.15
428.00 16843.68
431.00 855.24
432.00 1527.41
433.00 1875.48
434.00 1487.34
435.00 1973.68
436.00 1585.30
437.00 1549.55
447.00 11023.26
448.00 9611.35
449.00 19681.30
450.00 29524.27
451.00 30997.02
452.00 30373.36
453.00 29172.03
454.00 27794.16
455.00 25976.87
Name: Cis-1,3-di(n-hexyl)cyclohexane
Formula:
MW:
CAS#:
Comments: in-silico spectrum 63
Num peaks: 35
57.00 940.84
411.00 3997.41
412.00 4214.78
413.00 4951.02
414.00 5323.08
415.00 5129.35
416.00 4854.99
417.00 4857.27
418.00 4541.57
419.00 4099.63
420.00 12514.62
421.00 16274.17
422.00 22551.49
423.00 25127.41
424.00 24786.51
425.00 24051.30
426.00 22830.94
427.00 21421.45
428.00 19858.20
431.00 1006.90
432.00 1783.01
433.00 2195.57
434.00 1740.83
435.00 2304.25
436.00 1852.41
437.00 1819.66
447.00 12984.75
448.00 11316.98
449.00 23209.03
450.00 34816.48
451.00 36546.56
452.00 35806.33
453.00 34393.93
454.00 32773.71
455.00 30647.89
Name: Naphthalene, 1-(1-decylundecyl)decahydro-
Formula:
MW:
CAS#:
Comments: in-silico spectrum 64
Num peaks: 35
57.00 1459.17
411.00 6171.94
412.00 6533.61
413.00 7646.38
414.00 8243.18
415.00 7923.51
416.00 7466.19
417.00 7474.98
418.00 6998.54
419.00 6306.16
420.00 19461.57
421.00 25315.13
422.00 35158.35
423.00 39151.05
424.00 38633.47
425.00 37477.43
426.00 35563.95
427.00 33345.00
428.00 30930.64
431.00 1566.04
432.00 2737.26
433.00 3386.18
434.00 2684.09
435.00 3541.04
436.00 2848.41
437.00 2818.96
447.00 20200.99
448.00 17596.08
449.00 36162.95
450.00 54247.02
451.00 56930.05
452.00 55765.96
453.00 53574.16
454.00 51061.20
455.00 47785.38
Name: Tridecane, 4,8-dimethyl-
Formula:
MW:
CAS#:
Comments: in-silico spectrum 65
Num peaks: 35
57.00 693.36
411.00 2957.51
412.00 3099.58
413.00 3659.17
414.00 3921.71
415.00 3789.91
416.00 3609.70
417.00 3606.34
418.00 3367.28
419.00 3048.09
420.00 9164.50
421.00 11912.81
422.00 16457.63
423.00 18352.34
424.00 18093.01
425.00 17565.56
426.00 16680.58
427.00 15665.82
428.00 14509.34
431.00 737.65
432.00 1327.42
433.00 1625.65
434.00 1289.43
435.00 1715.50
436.00 1376.51
437.00 1339.88
447.00 9503.06
448.00 8289.22
449.00 16949.47
450.00 25427.16
451.00 26700.08
452.00 26166.60
453.00 25129.14
454.00 23938.62
455.00 22361.86
Name: 3-Methyltriacontane
Formula:
MW:
CAS#:
Comments: in-silico spectrum 66
Num peaks: 35
57.00 1153.06
411.00 4887.88
412.00 5165.44
413.00 6054.81
414.00 6519.54
415.00 6273.25
416.00 5923.20
417.00 5928.59
418.00 5547.19
419.00 5002.53
420.00 15364.16
421.00 19981.97
422.00 27724.07
423.00 30879.78
424.00 30466.95
425.00 29558.96
426.00 28054.24
427.00 26312.06
428.00 24400.43
431.00 1236.43
432.00 2173.50
433.00 2683.30
434.00 2126.97
435.00 2810.21
436.00 2259.79
437.00 2229.60
447.00 15944.43
448.00 13892.12
449.00 28523.76
450.00 42787.05
451.00 44906.95
452.00 43992.17
453.00 42260.59
454.00 40275.24
455.00 37679.34
Name: Undecane, 5-methyl-
Formula:
MW:
CAS#:
Comments: in-silico spectrum 67
Num peaks: 35
57.00 589.99
411.00 2520.27
412.00 2634.75
413.00 3116.72
414.00 3336.30
415.00 3227.93
416.00 3082.63
417.00 3077.30
418.00 2872.23
419.00 2603.00
420.00 7777.06
421.00 10107.81
422.00 13946.01
423.00 15556.82
424.00 15333.31
425.00 14890.17
426.00 14141.19
427.00 13286.45
428.00 12301.06
431.00 626.10
432.00 1134.13
433.00 1385.77
434.00 1099.71
435.00 1465.75
436.00 1174.68
437.00 1139.12
447.00 8062.24
448.00 7034.53
449.00 14367.17
450.00 21553.21
451.00 22635.54
452.00 22185.93
453.00 21304.48
454.00 20292.58
455.00 18947.46
Name: 9-methylheptadecane
Formula:
MW:
CAS#:
Comments: in-silico spectrum 68
Num peaks: 35
57.00 860.53
411.00 3661.80
412.00 3855.41
413.00 4534.68
414.00 4871.08
415.00 4697.67
416.00 4453.74
417.00 4454.69
418.00 4162.83
419.00 3760.61
420.00 11433.63
421.00 14866.52
422.00 20583.95
423.00 22940.06
424.00 22625.51
425.00 21957.22
426.00 20845.33
427.00 19563.63
428.00 18131.41
431.00 919.92
432.00 1636.61
433.00 2012.19
434.00 1595.74
435.00 2114.53
436.00 1699.31
437.00 1664.86
447.00 11861.56
448.00 10340.08
449.00 21188.72
450.00 31785.50
451.00 33367.94
452.00 32694.11
453.00 31402.88
454.00 29921.66
455.00 27972.61
Name: 11-Methylnonacosane
Formula:
MW:
CAS#:
Comments: in-silico spectrum 69
Num peaks: 35
57.00 1143.77
411.00 4849.23
412.00 5123.87
413.00 6006.92
414.00 6467.30
415.00 6223.57
416.00 5877.21
417.00 5882.50
418.00 5503.70
419.00 4963.62
420.00 15238.73
421.00 19818.62
422.00 27495.24
423.00 30625.61
424.00 30215.82
425.00 29315.58
426.00 27823.65
427.00 26096.38
428.00 24199.91
431.00 1226.32
432.00 2156.79
433.00 2662.20
434.00 2110.27
435.00 2788.48
436.00 2242.28
437.00 2211.65
447.00 15814.02
448.00 13778.84
449.00 28288.92
450.00 42434.83
451.00 44537.68
452.00 43630.75
453.00 41913.19
454.00 39943.91
455.00 37368.31
Name: 4,8,12-Trimethyldotriacontane
Formula:
MW:
CAS#:
Comments: in-silico spectrum 70
Num peaks: 35
57.00 1262.62
411.00 5350.42
412.00 5655.01
413.00 6627.85
414.00 7137.19
415.00 6866.80
416.00 6482.37
417.00 6488.78
418.00 6071.49
419.00 5474.88
420.00 16822.84
421.00 21879.32
422.00 30359.85
423.00 33814.64
424.00 33363.23
425.00 32368.25
426.00 30720.47
427.00 28811.61
428.00 26719.13
431.00 1353.84
432.00 2378.49
433.00 2936.88
434.00 2327.89
435.00 3075.39
436.00 2473.26
437.00 2441.04
447.00 17458.51
448.00 15211.24
449.00 31234.42
450.00 46853.56
451.00 49174.45
452.00 48172.49
453.00 46276.55
454.00 44103.06
455.00 41261.80
Name: Decane, 5,6-bis(2,2-dimethylpropylidene)-, (E,Z)-
Formula:
MW:
CAS#:
Comments: in-silico spectrum 71
Num peaks: 35
57.00 663.61
411.00 2828.78
412.00 2958.05
413.00 3497.51
414.00 3746.92
415.00 3623.52
416.00 3457.52
417.00 3451.45
418.00 3221.36
419.00 2919.63
420.00 8740.28
421.00 11359.87
422.00 15681.41
423.00 17490.19
424.00 17239.06
425.00 16741.06
426.00 15897.60
427.00 14934.58
428.00 13829.40
431.00 704.38
432.00 1271.44
433.00 1555.54
434.00 1233.78
435.00 1643.36
436.00 1317.65
437.00 1279.41
447.00 9062.95
448.00 7905.29
449.00 16152.84
450.00 24230.52
451.00 25446.76
452.00 24939.42
453.00 23949.34
454.00 22814.14
455.00 21305.04
Name: Undecane, 4,6-dimethyl-
Formula:
MW:
CAS#:
Comments: in-silico spectrum 72
Num peaks: 35
57.00 612.09
411.00 2614.37
412.00 2731.86
413.00 3233.12
414.00 3459.70
415.00 3347.95
416.00 3198.33
417.00 3192.94
418.00 2979.69
419.00 2700.75
420.00 8062.32
421.00 10478.46
422.00 14454.86
423.00 16125.18
424.00 15893.16
425.00 15433.78
426.00 14658.52
427.00 13773.05
428.00 12750.92
431.00 648.91
432.00 1176.91
433.00 1437.40
434.00 1140.55
435.00 1520.81
436.00 1218.91
437.00 1181.54
447.00 8357.74
448.00 7293.09
449.00 14891.79
450.00 22340.66
451.00 23462.91
452.00 22997.42
453.00 22083.34
454.00 21034.32
455.00 19638.83
Name: 1-Cyclopentyleicosane
Formula:
MW:
CAS#:
Comments: in-silico spectrum 73
Num peaks: 35
57.00 1058.22
411.00 4488.02
412.00 4740.29
413.00 5559.23
414.00 5983.99
415.00 5759.75
416.00 5441.34
417.00 5445.59
418.00 5094.43
419.00 4595.30
420.00 14094.46
421.00 18330.70
422.00 25425.54
423.00 28322.33
424.00 27942.39
425.00 27110.34
426.00 25731.32
427.00 24135.42
428.00 22380.26
431.00 1134.34
432.00 1997.02
433.00 2464.11
434.00 1953.26
435.00 2581.73
436.00 2076.25
437.00 2046.13
447.00 14626.31
448.00 12744.43
449.00 26160.86
450.00 39242.86
451.00 41188.72
452.00 40350.83
453.00 38761.59
454.00 36939.69
455.00 34555.26
Name: 13-Methylnonacosane
Formula:
MW:
CAS#:
Comments: in-silico spectrum 74
Num peaks: 35
57.00 1144.11
411.00 4850.58
412.00 5125.44
413.00 6008.60
414.00 6469.24
415.00 6225.32
416.00 5878.67
417.00 5883.99
418.00 5505.16
419.00 4964.86
420.00 15243.75
421.00 19825.21
422.00 27504.83
423.00 30636.15
424.00 30226.28
425.00 29325.67
426.00 27833.17
427.00 26105.18
428.00 24208.18
431.00 1226.72
432.00 2157.30
433.00 2662.93
434.00 2110.83
435.00 2789.16
436.00 2242.84
437.00 2212.32
447.00 15819.29
448.00 13783.36
449.00 28298.65
450.00 42449.43
451.00 44552.92
452.00 43645.62
453.00 41927.52
454.00 39957.62
455.00 37381.36
Name: Hexacosane, 9-octyl-
Formula:
MW:
CAS#:
Comments: in-silico spectrum 75
Num peaks: 35
57.00 1240.97
411.00 5256.92
412.00 5558.43
413.00 6512.28
414.00 7014.57
415.00 6747.36
416.00 6367.03
417.00 6373.44
418.00 5964.42
419.00 5377.46
420.00 16540.38
421.00 21512.28
422.00 29856.47
423.00 33252.30
424.00 32809.57
425.00 31830.46
426.00 30208.84
427.00 28330.08
428.00 26274.17
431.00 1331.17
432.00 2335.86
433.00 2885.49
434.00 2287.08
435.00 3020.37
436.00 2429.06
437.00 2399.06
447.00 17165.87
448.00 14955.29
449.00 30715.37
450.00 46074.18
451.00 48355.51
452.00 47369.27
453.00 45505.79
454.00 43369.30
455.00 40578.21
Name: Dodecane, 3-methyl-
Formula:
MW:
CAS#:
Comments: in-silico spectrum 76
Num peaks: 35
57.00 634.27
411.00 2707.47
412.00 2834.32
413.00 3349.03
414.00 3587.40
415.00 3468.72
416.00 3307.83
417.00 3303.38
418.00 3084.01
419.00 2793.25
420.00 8373.87
421.00 10884.29
422.00 15027.72
423.00 16760.36
424.00 16521.73
425.00 16042.23
426.00 15234.18
427.00 14310.29
428.00 13251.57
431.00 674.21
432.00 1216.58
433.00 1488.46
434.00 1180.93
435.00 1572.40
436.00 1260.85
437.00 1225.27
447.00 8682.04
448.00 7573.99
449.00 15479.13
450.00 23221.16
451.00 24385.24
452.00 23899.33
453.00 22950.97
454.00 21862.24
455.00 20417.97
Name: Heptane, 2,3-dimethyl-
Formula:
MW:
CAS#:
Comments: in-silico spectrum 77
Num peaks: 35
57.00 376.01
411.00 1612.70
412.00 1665.64
413.00 1992.32
414.00 2118.54
415.00 2061.71
416.00 1993.30
417.00 1985.00
418.00 1849.09
419.00 1684.85
420.00 4874.71
421.00 6330.51
422.00 8678.33
423.00 9695.17
424.00 9545.88
425.00 9279.47
426.00 8821.10
427.00 8304.85
428.00 7675.85
431.00 392.50
432.00 734.15
433.00 889.40
434.00 706.63
435.00 950.47
436.00 757.68
437.00 723.43
447.00 5045.80
448.00 4412.98
449.00 8952.20
450.00 13434.24
451.00 14117.23
452.00 13847.42
453.00 13290.96
454.00 12651.87
455.00 11786.01
Name: 3,3-Diethyltridecane
Formula:
MW:
CAS#:
Comments: in-silico spectrum 78
Num peaks: 35
57.00 780.40
411.00 3323.54
412.00 3491.38
413.00 4114.07
414.00 4414.41
415.00 4261.94
416.00 4049.50
417.00 4047.81
418.00 3781.52
419.00 3419.38
420.00 10338.42
421.00 13440.76
422.00 18588.72
423.00 20723.28
424.00 20435.23
425.00 19835.60
426.00 18833.22
427.00 17681.32
428.00 16381.55
431.00 832.60
432.00 1488.25
433.00 1826.74
434.00 1448.97
435.00 1923.68
436.00 1544.59
437.00 1508.42
447.00 10722.41
448.00 9349.50
449.00 19139.85
450.00 28711.51
451.00 30146.17
452.00 29540.60
453.00 28371.29
454.00 27030.36
455.00 25259.69
Name: Docosane, 7-hexyl-
Formula:
MW:
CAS#:
Comments: in-silico spectrum 79
Num peaks: 35
57.00 1075.30
411.00 4562.85
412.00 4817.28
413.00 5651.91
414.00 6081.70
415.00 5855.54
416.00 5534.68
417.00 5538.84
418.00 5180.75
419.00 4674.05
420.00 14317.88
421.00 18619.83
422.00 25820.32
423.00 28763.63
424.00 28376.87
425.00 27532.88
426.00 26133.44
427.00 24514.55
428.00 22730.25
431.00 1152.28
432.00 2031.79
433.00 2505.52
434.00 1986.28
435.00 2626.32
436.00 2111.59
437.00 2079.55
447.00 14857.11
448.00 12946.59
449.00 26568.85
450.00 39854.78
451.00 41831.77
452.00 40981.71
453.00 39367.22
454.00 37515.92
455.00 35091.41
Name: Pentacosane
Formula:
MW:
CAS#:
Comments: in-silico spectrum 80
Num peaks: 35
57.00 1054.65
411.00 4470.53
412.00 4725.06
413.00 5538.20
414.00 5963.60
415.00 5738.08
416.00 5417.50
417.00 5422.38
418.00 5073.60
419.00 4575.18
420.00 14055.20
421.00 18279.67
422.00 25363.27
423.00 28249.98
424.00 27872.49
425.00 27041.70
426.00 25665.05
427.00 24071.09
428.00 22322.57
431.00 1130.98
432.00 1987.89
433.00 2454.30
434.00 1945.62
435.00 2569.99
436.00 2066.70
437.00 2039.44
447.00 14586.37
448.00 12708.52
449.00 26094.55
450.00 39143.07
451.00 41082.40
452.00 40245.12
453.00 38661.38
454.00 36845.39
455.00 34470.99
Name: Hexadecane, 2,6,10-trimethyl-
Formula:
MW:
CAS#:
Comments: in-silico spectrum 81
Num peaks: 35
57.00 821.86
411.00 3501.00
412.00 3678.86
413.00 4333.95
414.00 4650.86
415.00 4489.01
416.00 4264.18
417.00 4263.51
418.00 3982.46
419.00 3600.79
420.00 10896.25
421.00 14166.20
422.00 19596.13
423.00 21844.58
424.00 21541.25
425.00 20908.34
426.00 19851.99
427.00 18636.74
428.00 17267.68
431.00 876.83
432.00 1567.42
433.00 1924.00
434.00 1525.76
435.00 2025.35
436.00 1626.89
437.00 1589.47
447.00 11301.91
448.00 9854.92
449.00 20176.01
450.00 30267.10
451.00 31777.13
452.00 31138.53
453.00 29906.39
454.00 28493.34
455.00 26628.64
Name: Cyclooctacosane
Formula:
MW:
CAS#:
Comments: in-silico spectrum 82
Num peaks: 35
57.00 1112.06
411.00 4705.17
412.00 4981.66
413.00 5829.15
414.00 6284.76
415.00 6040.26
416.00 5691.61
417.00 5698.48
418.00 5335.07
419.00 4807.03
420.00 14839.48
421.00 19302.32
422.00 26808.83
423.00 29852.17
424.00 29457.81
425.00 28576.30
426.00 27117.57
427.00 25425.73
428.00 23585.26
431.00 1194.27
432.00 2086.92
433.00 2581.76
434.00 2046.28
435.00 2699.20
436.00 2171.16
437.00 2149.45
447.00 15403.39
448.00 13416.91
449.00 27574.88
450.00 41363.11
451.00 43408.12
452.00 42519.67
453.00 40848.96
454.00 38934.13
455.00 36437.21
Name: Hexane, 2,3,5-trimethyl-
Formula:
MW:
CAS#:
Comments: in-silico spectrum 83
Num peaks: 35
57.00 281.03
411.00 1210.25
412.00 1242.71
413.00 1494.38
414.00 1583.91
415.00 1546.10
416.00 1504.29
417.00 1496.16
418.00 1392.13
419.00 1271.84
420.00 3618.81
421.00 4697.45
422.00 6417.65
423.00 7175.87
424.00 7061.35
425.00 6867.34
426.00 6532.21
427.00 6156.41
428.00 5685.19
431.00 291.47
432.00 554.10
433.00 668.74
434.00 531.95
435.00 718.72
436.00 570.75
437.00 541.08
447.00 3742.54
448.00 3277.51
449.00 6625.11
450.00 9943.82
451.00 10452.97
452.00 10257.09
453.00 9842.48
454.00 9365.89
455.00 8714.52
Name: 6,6-Diethylhexadecane
Formula:
MW:
CAS#:
Comments: in-silico spectrum 84
Num peaks: 35
57.00 885.98
411.00 3768.47
412.00 3967.21
413.00 4666.85
414.00 5012.73
415.00 4834.58
416.00 4583.71
417.00 4584.59
418.00 4284.43
419.00 3870.53
420.00 11764.51
421.00 15296.82
422.00 21178.31
423.00 23603.15
424.00 23279.75
425.00 22592.34
426.00 21448.29
427.00 20129.62
428.00 18655.83
431.00 947.07
432.00 1684.16
433.00 2070.91
434.00 1642.33
435.00 2176.40
436.00 1748.91
437.00 1713.17
447.00 12204.32
448.00 10638.78
449.00 21800.91
450.00 32703.05
451.00 34332.35
452.00 33639.33
453.00 32310.21
454.00 30786.51
455.00 28780.51
Name: Pentatriacontane, 13-docosenylidene-
Formula:
MW:
CAS#:
Comments: in-silico spectrum 85
Num peaks: 35
57.00 1485.32
411.00 6277.90
412.00 6647.35
413.00 7776.74
414.00 8386.97
415.00 8059.28
416.00 7591.24
417.00 7600.77
418.00 7116.38
419.00 6412.04
420.00 19809.71
421.00 25766.66
422.00 35794.41
423.00 39855.19
424.00 39329.02
425.00 38153.23
426.00 36203.12
427.00 33942.56
428.00 31487.32
431.00 1595.60
432.00 2782.69
433.00 3444.39
434.00 2729.71
435.00 3599.54
436.00 2895.74
437.00 2869.30
447.00 20563.64
448.00 17910.52
449.00 36815.39
450.00 55223.04
451.00 57952.04
452.00 56763.73
453.00 54534.75
454.00 51980.01
455.00 48649.27
Name: Pentatriacontane
Formula:
MW:
CAS#:
Comments: in-silico spectrum 86
Num peaks: 35
57.00 1331.44
411.00 5631.61
412.00 5964.67
413.00 6977.19
414.00 7524.04
415.00 7229.89
416.00 6809.96
417.00 6818.72
418.00 6384.40
419.00 5751.69
420.00 17772.39
421.00 23117.48
422.00 32113.75
423.00 35757.45
424.00 35286.07
425.00 34229.61
426.00 32481.20
427.00 30452.62
428.00 28249.95
431.00 1430.39
432.00 2496.63
433.00 3089.87
434.00 2449.10
435.00 3229.40
436.00 2597.93
437.00 2573.53
447.00 18448.27
448.00 16068.39
449.00 33029.95
450.00 49545.21
451.00 51993.70
452.00 50928.46
453.00 48928.20
454.00 46635.49
455.00 43647.52
Name: Heptane, 3,4-dimethyl-
Formula:
MW:
CAS#:
Comments: in-silico spectrum 87
Num peaks: 35
57.00 361.25
411.00 1550.46
412.00 1600.14
413.00 1915.44
414.00 2035.82
415.00 1982.10
416.00 1917.91
417.00 1909.52
418.00 1778.61
419.00 1620.94
420.00 4680.19
421.00 6077.71
422.00 8327.90
423.00 9305.10
424.00 9161.21
425.00 8905.65
426.00 8466.70
427.00 7972.23
428.00 7367.48
431.00 376.97
432.00 706.38
433.00 855.32
434.00 679.80
435.00 914.76
436.00 728.83
437.00 695.45
447.00 4843.86
448.00 4237.16
449.00 8591.58
450.00 12893.37
451.00 13549.79
452.00 13291.43
453.00 12756.79
454.00 12142.84
455.00 11309.92
Name: Pentane, 2,2,3,4-tetramethyl-
Formula:
MW:
CAS#:
Comments: in-silico spectrum 88
Num peaks: 35
57.00 255.91
411.00 1103.16
412.00 1128.13
413.00 1362.72
414.00 1440.15
415.00 1408.82
416.00 1375.98
417.00 1368.15
418.00 1272.02
419.00 1163.74
420.00 3276.08
421.00 4252.10
422.00 5795.13
423.00 6483.99
424.00 6378.71
425.00 6204.92
426.00 5904.96
427.00 5569.07
428.00 5139.88
431.00 263.94
432.00 507.06
433.00 610.38
434.00 485.30
435.00 657.98
436.00 521.91
437.00 492.82
447.00 3385.91
448.00 2968.06
449.00 5985.16
450.00 8984.43
451.00 9447.27
452.00 9273.37
453.00 8896.04
454.00 8464.29
455.00 7868.92
Name: Nonane, 5-(2-methylpropyl)-
Formula:
MW:
CAS#:
Comments: in-silico spectrum 89
Num peaks: 35
57.00 634.94
411.00 2710.98
412.00 2835.81
413.00 3352.90
414.00 3590.19
415.00 3472.55
416.00 3314.15
417.00 3308.83
418.00 3088.44
419.00 2798.22
420.00 8374.58
421.00 10884.89
422.00 15023.47
423.00 16757.39
424.00 16517.55
425.00 16038.79
426.00 15231.92
427.00 14309.65
428.00 13249.49
431.00 673.73
432.00 1219.21
433.00 1490.29
434.00 1182.76
435.00 1575.40
436.00 1262.99
437.00 1225.87
447.00 8682.77
448.00 7575.08
449.00 15475.75
450.00 23216.65
451.00 24381.79
452.00 23896.58
453.00 22947.84
454.00 21858.34
455.00 20411.77
Name: Octadecane, 2,6-dimethyl-
Formula:
MW:
CAS#:
Comments: in-silico spectrum 90
Num peaks: 35
57.00 859.99
411.00 3661.08
412.00 3851.48
413.00 4533.25
414.00 4867.36
415.00 4695.68
416.00 4455.46
417.00 4456.02
418.00 4163.04
419.00 3762.22
420.00 11415.78
421.00 14842.52
422.00 20542.63
423.00 22896.46
424.00 22580.91
425.00 21915.32
426.00 20806.69
427.00 19529.74
428.00 18097.96
431.00 918.58
432.00 1637.49
433.00 2011.93
434.00 1595.47
435.00 2115.73
436.00 1700.09
437.00 1663.57
447.00 11842.08
448.00 10324.40
449.00 21148.19
450.00 31725.01
451.00 33305.70
452.00 32634.54
453.00 31344.56
454.00 29865.13
455.00 27915.88
Name: Octane, 2-methyl-
Formula:
MW:
CAS#:
Comments: in-silico spectrum 91
Num peaks: 35
57.00 440.09
411.00 1886.12
412.00 1957.64
413.00 2330.73
414.00 2484.92
415.00 2412.41
416.00 2321.40
417.00 2313.63
418.00 2156.48
419.00 1960.66
420.00 5749.24
421.00 7468.98
422.00 10265.69
423.00 11461.95
424.00 11289.92
425.00 10970.65
426.00 10424.13
427.00 9806.02
428.00 9069.30
431.00 462.84
432.00 855.18
433.00 1038.44
434.00 824.97
435.00 1105.32
436.00 883.20
437.00 848.25
447.00 5954.95
448.00 5202.40
449.00 10584.25
450.00 15880.52
451.00 16684.03
452.00 16359.41
453.00 15705.05
454.00 14953.98
455.00 13944.03
