Name: Undecane, 5-cyclohexyl-
Formula:
MW:
CAS#:
Comments: in-silico spectrum 1
Num peaks: 26
27.00 25.21
29.00 184.88
39.00 88.01
41.00 571.01
42.00 104.21
43.00 601.83
54.00 60.79
55.00 827.62
56.00 220.78
57.00 643.30
67.00 258.70
68.00 40.82
69.00 441.39
70.00 126.82
71.00 260.69
81.00 16.48
82.00 586.95
83.00 791.98
84.00 101.93
85.00 182.33
96.00 81.62
97.00 350.07
98.00 27.03
99.00 19.94
111.00 176.32
125.00 80.99
Name: Cyclohexane, 1,1'-tetradecylidenebis-
Formula:
MW:
CAS#:
Comments: in-silico spectrum 2
Num peaks: 26
29.00 126.54
39.00 58.32
41.00 556.12
42.00 86.09
43.00 573.33
54.00 61.07
55.00 831.20
56.00 166.64
57.00 577.64
67.00 332.04
68.00 69.20
69.00 444.81
70.00 90.48
71.00 222.78
81.00 131.51
82.00 632.33
83.00 809.06
84.00 74.92
85.00 160.46
95.00 106.43
96.00 131.03
97.00 350.91
98.00 11.42
99.00 13.09
111.00 167.56
125.00 72.98
Name: Decane, 2,3,7-trimethyl-
Formula:
MW:
CAS#:
Comments: in-silico spectrum 3
Num peaks: 15
27.00 120.15
29.00 188.01
39.00 68.36
41.00 345.14
42.00 73.31
43.00 783.91
55.00 117.25
56.00 215.66
57.00 817.49
69.00 6.03
70.00 91.71
71.00 446.09
84.00 86.50
85.00 319.78
99.00 47.11
Name: Cyclopropane, 1-(1,2-dimethylpropyl)-1-methyl-2-nonyl-
Formula:
MW:
CAS#:
Comments: in-silico spectrum 4
Num peaks: 26
27.00 123.62
29.00 234.83
39.00 149.41
41.00 628.69
42.00 144.05
43.00 558.17
54.00 51.42
55.00 734.22
56.00 356.97
57.00 520.51
67.00 184.34
68.00 189.56
69.00 674.96
70.00 246.59
71.00 181.99
81.00 72.67
82.00 122.40
83.00 524.41
84.00 158.32
85.00 115.44
95.00 86.49
96.00 75.96
97.00 405.93
98.00 76.85
111.00 215.11
125.00 107.30
Name: Z-14-Nonacosane
Formula:
MW:
CAS#:
Comments: in-silico spectrum 5
Num peaks: 25
27.00 56.85
29.00 199.13
39.00 52.77
41.00 483.17
42.00 109.27
43.00 630.92
54.00 3.67
55.00 503.76
56.00 304.31
57.00 736.69
67.00 37.49
68.00 85.52
69.00 411.59
70.00 164.26
71.00 355.54
82.00 2.20
83.00 330.40
84.00 113.39
85.00 246.18
96.00 27.37
97.00 275.61
98.00 67.97
99.00 64.54
111.00 140.60
125.00 103.05
Name: 11-Methylpentacosane
Formula:
MW:
CAS#:
Comments: in-silico spectrum 6
Num peaks: 17
29.00 70.02
41.00 276.98
42.00 61.07
43.00 588.35
55.00 188.77
56.00 204.68
57.00 846.67
69.00 100.62
70.00 77.73
71.00 515.28
83.00 3.51
84.00 50.49
85.00 350.82
97.00 2.92
99.00 127.19
113.00 48.10
127.00 27.99
Name: Cyclopentane, (4-octyldodecyl)-
Formula:
MW:
CAS#:
Comments: in-silico spectrum 7
Num peaks: 27
27.00 41.12
29.00 181.86
39.00 90.37
41.00 605.14
42.00 126.63
43.00 599.70
54.00 52.23
55.00 756.76
56.00 314.57
57.00 615.46
67.00 214.04
68.00 190.79
69.00 625.88
70.00 204.24
71.00 253.12
81.00 93.99
82.00 227.13
83.00 600.75
84.00 126.87
85.00 170.02
95.00 86.14
96.00 127.59
97.00 435.38
98.00 73.06
99.00 23.29
111.00 230.82
125.00 117.69
Name: 3-Ethyl-3-methylheptadecane
Formula:
MW:
CAS#:
Comments: in-silico spectrum 8
Num peaks: 15
29.00 66.63
41.00 265.99
42.00 58.40
43.00 583.43
55.00 163.06
56.00 207.96
57.00 859.44
69.00 82.42
70.00 82.09
71.00 534.10
84.00 51.14
85.00 360.38
99.00 129.95
113.00 47.68
127.00 32.70
Name: 5-Ethyl-5-methylheptadecane
Formula:
MW:
CAS#:
Comments: in-silico spectrum 9
Num peaks: 15
29.00 62.54
41.00 266.09
42.00 58.50
43.00 583.03
55.00 170.01
56.00 205.73
57.00 861.35
69.00 84.57
70.00 79.94
71.00 535.25
84.00 50.48
85.00 363.04
99.00 132.41
113.00 50.39
127.00 35.01
Name: Tetracosane, 11-decyl-
Formula:
MW:
CAS#:
Comments: in-silico spectrum 10
Num peaks: 18
29.00 34.68
41.00 265.53
42.00 56.30
43.00 570.65
55.00 225.79
56.00 197.75
57.00 854.69
69.00 124.44
70.00 69.21
71.00 527.80
83.00 74.45
84.00 47.97
85.00 372.65
97.00 52.28
98.00 1.81
99.00 145.03
113.00 66.22
127.00 44.23
Name: Nonacosane, 2-methyl-
Formula:
MW:
CAS#:
Comments: in-silico spectrum 11
Num peaks: 17
29.00 47.69
41.00 265.40
42.00 58.16
43.00 575.57
55.00 193.10
56.00 210.21
57.00 868.92
69.00 113.33
70.00 78.46
71.00 538.50
83.00 12.29
84.00 48.72
85.00 370.03
97.00 20.11
99.00 142.32
113.00 60.40
127.00 40.21
Name: Heptane, 2,4-dimethyl-
Formula:
MW:
CAS#:
Comments: in-silico spectrum 12
Num peaks: 13
27.00 230.60
29.00 253.12
39.00 145.40
41.00 399.81
42.00 81.74
43.00 987.99
55.00 90.86
56.00 217.55
57.00 697.58
70.00 108.99
71.00 309.20
84.00 146.47
85.00 320.65
Name: 3,3-Diethylheptadecane
Formula:
MW:
CAS#:
Comments: in-silico spectrum 13
Num peaks: 15
29.00 76.95
41.00 277.64
42.00 61.15
43.00 603.54
55.00 170.09
56.00 207.16
57.00 863.68
69.00 79.69
70.00 81.32
71.00 530.76
84.00 53.20
85.00 359.17
99.00 125.50
113.00 43.18
127.00 27.57
Name: Octane, 3,5-dimethyl-
Formula:
MW:
CAS#:
Comments: in-silico spectrum 14
Num peaks: 14
27.00 169.21
29.00 210.97
39.00 104.08
41.00 350.14
42.00 72.93
43.00 835.07
55.00 93.12
56.00 205.18
57.00 714.51
70.00 93.88
71.00 355.25
84.00 110.77
85.00 301.87
99.00 8.70
Name: Decane, 2,4,6-trimethyl-
Formula:
MW:
CAS#:
Comments: in-silico spectrum 15
Num peaks: 15
27.00 130.10
29.00 192.68
39.00 75.89
41.00 339.90
42.00 72.36
43.00 763.00
55.00 115.21
56.00 207.82
57.00 754.27
69.00 10.68
70.00 88.16
71.00 396.26
84.00 90.43
85.00 297.62
99.00 33.92
Name: Eicosane, 2-cyclohexyl-
Formula:
MW:
CAS#:
Comments: in-silico spectrum 16
Num peaks: 25
29.00 138.03
39.00 50.17
41.00 504.07
42.00 87.59
43.00 573.10
54.00 47.78
55.00 736.44
56.00 192.54
57.00 636.46
67.00 233.40
68.00 39.29
69.00 391.57
70.00 103.05
71.00 281.41
81.00 31.09
82.00 520.51
83.00 709.83
84.00 81.73
85.00 201.71
96.00 97.97
97.00 328.23
98.00 25.53
99.00 38.94
111.00 165.68
125.00 74.20
Name: Dodecane, 6-cyclohexyl-
Formula:
MW:
CAS#:
Comments: in-silico spectrum 17
Num peaks: 26
27.00 22.44
29.00 181.09
39.00 85.11
41.00 566.01
42.00 103.60
43.00 598.23
54.00 59.58
55.00 818.43
56.00 221.56
57.00 641.70
67.00 254.64
68.00 45.07
69.00 442.98
70.00 127.65
71.00 261.99
81.00 19.41
82.00 571.27
83.00 780.64
84.00 101.16
85.00 183.35
96.00 84.48
97.00 352.15
98.00 28.73
99.00 21.88
111.00 177.70
125.00 81.87
Name: Dodecane
Formula:
MW:
CAS#:
Comments: in-silico spectrum 18
Num peaks: 15
27.00 108.05
29.00 185.07
39.00 58.48
41.00 343.81
42.00 76.52
43.00 765.02
55.00 132.50
56.00 203.58
57.00 820.10
69.00 2.27
70.00 81.12
71.00 443.68
84.00 77.11
85.00 309.02
99.00 52.32
Name: Cyclopentane, (2-decyldodecyl)-
Formula:
MW:
CAS#:
Comments: in-silico spectrum 19
Num peaks: 27
27.00 21.27
29.00 161.17
39.00 73.88
41.00 577.70
42.00 117.39
43.00 587.08
54.00 47.99
55.00 730.84
56.00 293.30
57.00 612.04
67.00 214.66
68.00 181.92
69.00 594.96
70.00 186.96
71.00 259.90
81.00 102.72
82.00 235.55
83.00 589.17
84.00 115.06
85.00 176.77
95.00 93.23
96.00 134.82
97.00 422.68
98.00 67.90
99.00 29.50
111.00 223.60
125.00 113.39
Name: Octadecane, 6-methyl-
Formula:
MW:
CAS#:
Comments: in-silico spectrum 20
Num peaks: 16
27.00 30.11
29.00 125.15
39.00 10.84
41.00 310.90
42.00 69.43
43.00 654.98
55.00 169.12
56.00 205.89
57.00 845.39
69.00 62.28
70.00 79.15
71.00 491.70
84.00 57.80
85.00 327.52
99.00 96.94
113.00 16.72
Name: 5-Methyltricosane
Formula:
MW:
CAS#:
Comments: in-silico spectrum 21
Num peaks: 15
29.00 83.28
41.00 284.96
42.00 63.18
43.00 602.07
55.00 185.85
56.00 203.18
57.00 843.55
69.00 90.89
70.00 77.27
71.00 507.63
84.00 51.63
85.00 343.56
99.00 119.65
113.00 40.94
127.00 21.13
Name: Dodecane, 2,6,11-trimethyl-
Formula:
MW:
CAS#:
Comments: in-silico spectrum 22
Num peaks: 16
27.00 53.47
29.00 132.83
39.00 25.95
41.00 292.85
42.00 63.50
43.00 633.42
55.00 125.84
56.00 204.90
57.00 796.30
69.00 42.76
70.00 81.83
71.00 460.91
84.00 59.01
85.00 306.04
99.00 80.97
113.00 1.52
Name: 13,17,21-Trimethylpentatriacontane
Formula:
MW:
CAS#:
Comments: in-silico spectrum 23
Num peaks: 19
29.00 4.09
41.00 227.15
42.00 46.89
43.00 507.33
55.00 195.96
56.00 199.35
57.00 823.88
69.00 136.00
70.00 71.17
71.00 524.60
83.00 43.84
84.00 42.60
85.00 370.73
97.00 61.54
98.00 5.28
99.00 153.76
113.00 75.21
127.00 54.76
141.00 23.02
Name: Tridecane, 3-cyclohexyl-
Formula:
MW:
CAS#:
Comments: in-silico spectrum 24
Num peaks: 26
27.00 24.12
29.00 183.84
39.00 87.13
41.00 570.02
42.00 103.54
43.00 605.06
54.00 60.77
55.00 825.26
56.00 217.35
57.00 644.85
67.00 260.44
68.00 38.67
69.00 434.93
70.00 123.19
71.00 261.43
81.00 16.00
82.00 591.77
83.00 791.24
84.00 101.10
85.00 183.78
96.00 81.12
97.00 344.56
98.00 25.19
99.00 20.00
111.00 172.84
125.00 78.64
Name: 13-Methylheptacosane
Formula:
MW:
CAS#:
Comments: in-silico spectrum 25
Num peaks: 17
29.00 58.09
41.00 268.90
42.00 58.90
43.00 574.69
55.00 191.86
56.00 204.74
57.00 845.44
69.00 108.57
70.00 77.27
71.00 519.17
83.00 13.13
84.00 49.32
85.00 355.81
97.00 15.46
99.00 132.97
113.00 53.95
127.00 33.71
Name: 3-Ethyl-3-methylnonadecane
Formula:
MW:
CAS#:
Comments: in-silico spectrum 26
Num peaks: 15
29.00 55.75
41.00 259.65
42.00 56.79
43.00 570.51
55.00 168.77
56.00 208.40
57.00 859.29
69.00 92.23
70.00 82.01
71.00 537.95
84.00 50.09
85.00 365.14
99.00 136.05
113.00 54.04
127.00 38.36
Name: Decane, 2,6,6-trimethyl-
Formula:
MW:
CAS#:
Comments: in-silico spectrum 27
Num peaks: 16
27.00 54.33
29.00 124.68
39.00 30.08
41.00 282.51
42.00 58.84
43.00 626.06
55.00 108.78
56.00 208.06
57.00 789.62
69.00 35.65
70.00 85.21
71.00 463.65
84.00 62.59
85.00 314.28
99.00 81.40
113.00 0.19
Name: 2-Methyltetracosane
Formula:
MW:
CAS#:
Comments: in-silico spectrum 28
Num peaks: 15
29.00 77.38
41.00 284.61
42.00 63.23
43.00 608.18
55.00 183.27
56.00 211.65
57.00 871.62
69.00 95.00
70.00 80.75
71.00 529.29
84.00 51.74
85.00 357.42
99.00 127.82
113.00 45.66
127.00 25.88
Name: Undecane, 5,7-dimethyl-
Formula:
MW:
CAS#:
Comments: in-silico spectrum 29
Num peaks: 15
27.00 96.44
29.00 168.44
39.00 52.02
41.00 322.15
42.00 69.48
43.00 714.96
55.00 118.94
56.00 204.29
57.00 789.84
69.00 15.59
70.00 82.59
71.00 434.54
84.00 74.06
85.00 302.54
99.00 56.00
Name: Octane, 2,6,6-trimethyl-
Formula:
MW:
CAS#:
Comments: in-silico spectrum 30
Num peaks: 15
27.00 93.32
29.00 145.98
39.00 57.45
41.00 289.51
42.00 57.84
43.00 670.23
55.00 87.23
56.00 202.22
57.00 734.75
69.00 7.34
70.00 87.94
71.00 414.95
84.00 77.43
85.00 302.63
99.00 53.72
Name: 3,3-Diethylpentadecane
Formula:
MW:
CAS#:
Comments: in-silico spectrum 31
Num peaks: 16
27.00 1.84
29.00 93.37
41.00 287.11
42.00 63.24
43.00 624.61
55.00 162.43
56.00 207.11
57.00 862.37
69.00 66.67
70.00 81.63
71.00 523.68
84.00 55.86
85.00 352.95
99.00 115.92
113.00 32.98
127.00 18.60
Name: Hexacontane
Formula:
MW:
CAS#:
Comments: in-silico spectrum 32
Num peaks: 19
41.00 188.21
42.00 36.31
43.00 465.16
55.00 203.45
56.00 193.74
57.00 822.99
69.00 152.07
70.00 65.61
71.00 541.63
83.00 78.02
84.00 39.59
85.00 396.51
97.00 99.65
98.00 12.42
99.00 173.93
111.00 25.73
113.00 93.96
127.00 72.30
141.00 58.01
Name: Undecane, 3-ethyl-
Formula:
MW:
CAS#:
Comments: in-silico spectrum 33
Num peaks: 14
27.00 126.54
29.00 202.09
39.00 71.50
41.00 361.27
42.00 80.98
43.00 805.27
55.00 138.84
56.00 203.22
57.00 815.68
70.00 83.34
71.00 433.11
84.00 85.04
85.00 309.32
99.00 40.62
Name: Tridecane, 6-cyclohexyl-
Formula:
MW:
CAS#:
Comments: in-silico spectrum 34
Num peaks: 26
27.00 20.06
29.00 181.74
39.00 84.35
41.00 571.76
42.00 103.73
43.00 609.32
54.00 60.29
55.00 828.94
56.00 220.24
57.00 654.00
67.00 259.65
68.00 41.39
69.00 440.77
70.00 125.25
71.00 268.20
81.00 18.05
82.00 588.55
83.00 794.14
84.00 100.91
85.00 188.47
96.00 85.19
97.00 352.17
98.00 27.17
99.00 22.85
111.00 177.18
125.00 81.17
Name: Nonadecane, 3-methyl-
Formula:
MW:
CAS#:
Comments: in-silico spectrum 35
Num peaks: 16
27.00 2.75
29.00 98.03
41.00 288.45
42.00 64.30
43.00 610.59
55.00 171.01
56.00 206.08
57.00 839.96
69.00 78.88
70.00 80.12
71.00 502.05
84.00 53.22
85.00 335.36
99.00 111.37
113.00 32.19
127.00 13.88
Name: Nonane, 3,7-dimethyl-
Formula:
MW:
CAS#:
Comments: in-silico spectrum 36
Num peaks: 15
27.00 109.14
29.00 174.67
39.00 61.62
41.00 325.91
42.00 68.45
43.00 740.28
55.00 108.25
56.00 214.75
57.00 797.85
69.00 9.89
70.00 91.42
71.00 441.01
84.00 81.96
85.00 313.85
99.00 52.23
Name: Undecane, 2,7-dimethyl-
Formula:
MW:
CAS#:
Comments: in-silico spectrum 37
Num peaks: 15
27.00 78.41
29.00 154.26
39.00 41.15
41.00 317.09
42.00 69.01
43.00 706.68
55.00 119.79
56.00 208.35
57.00 829.95
69.00 16.40
70.00 82.08
71.00 468.05
84.00 67.56
85.00 316.97
99.00 70.83
Name: Octane, 2,3,3-trimethyl-
Formula:
MW:
CAS#:
Comments: in-silico spectrum 38
Num peaks: 14
27.00 113.91
29.00 166.41
39.00 70.61
41.00 315.22
42.00 63.97
43.00 738.66
55.00 93.88
56.00 203.12
57.00 759.41
70.00 89.05
71.00 419.16
84.00 86.07
85.00 313.04
99.00 44.53
Name: Decane, 5,6-dimethyl-
Formula:
MW:
CAS#:
Comments: in-silico spectrum 39
Num peaks: 14
27.00 120.47
29.00 187.54
39.00 68.48
41.00 345.52
42.00 73.90
43.00 788.94
55.00 116.23
56.00 212.65
57.00 818.41
70.00 89.17
71.00 444.46
84.00 86.34
85.00 320.05
99.00 46.86
Name: Cycloundecane, 1,1,2-trimethyl-
Formula:
MW:
CAS#:
Comments: in-silico spectrum 40
Num peaks: 23
27.00 183.75
29.00 275.05
39.00 176.68
41.00 578.26
42.00 146.88
43.00 490.94
54.00 37.13
55.00 654.52
56.00 393.96
57.00 465.06
67.00 75.07
68.00 143.68
69.00 650.98
70.00 286.21
71.00 164.72
83.00 420.63
84.00 179.49
85.00 94.04
96.00 2.53
97.00 376.61
98.00 84.98
111.00 207.12
125.00 98.32
Name: Heptadecane, 2-methyl-
Formula:
MW:
CAS#:
Comments: in-silico spectrum 41
Num peaks: 16
27.00 38.34
29.00 131.78
39.00 15.46
41.00 316.45
42.00 70.80
43.00 676.00
55.00 159.07
56.00 212.03
57.00 866.95
69.00 53.56
70.00 81.52
71.00 503.34
84.00 59.32
85.00 333.75
99.00 96.18
113.00 12.42
Name: Octatriacontane, 3,5-dimethyl-
Formula:
MW:
CAS#:
Comments: in-silico spectrum 42
Num peaks: 19
41.00 216.57
42.00 44.13
43.00 489.68
55.00 201.41
56.00 195.46
57.00 810.46
69.00 140.81
70.00 68.70
71.00 518.64
83.00 62.99
84.00 41.71
85.00 370.43
97.00 76.08
98.00 9.06
99.00 156.05
111.00 9.87
113.00 78.84
127.00 57.65
141.00 31.67
Name: Cyclopropane, 1-methyl-1-(1-methylethyl)-2-nonyl-
Formula:
MW:
CAS#:
Comments: in-silico spectrum 43
Num peaks: 27
27.00 91.30
29.00 207.65
39.00 119.84
41.00 578.20
42.00 130.56
43.00 545.41
54.00 41.42
55.00 679.11
56.00 331.70
57.00 545.38
67.00 160.66
68.00 170.48
69.00 613.49
70.00 224.86
71.00 218.05
81.00 56.09
82.00 114.59
83.00 491.03
84.00 139.48
85.00 138.70
95.00 49.44
96.00 79.12
97.00 385.02
98.00 73.43
99.00 8.84
111.00 206.03
125.00 104.63
Name: Hexadecane, 8-hexyl-8-pentyl-
Formula:
MW:
CAS#:
Comments: in-silico spectrum 44
Num peaks: 18
29.00 31.46
41.00 257.56
42.00 55.55
43.00 568.57
55.00 197.38
56.00 211.71
57.00 885.64
69.00 117.61
70.00 79.46
71.00 559.20
83.00 19.50
84.00 49.17
85.00 388.48
97.00 26.90
99.00 153.41
113.00 69.72
127.00 51.20
141.00 2.27
Name: 4,4-Dipropylheptane
Formula:
MW:
CAS#:
Comments: in-silico spectrum 45
Num peaks: 15
27.00 130.19
29.00 179.35
39.00 79.82
41.00 321.27
42.00 65.09
43.00 741.41
55.00 100.96
56.00 202.48
57.00 706.77
69.00 7.23
70.00 89.85
71.00 372.70
84.00 97.88
85.00 300.00
99.00 30.74
Name: 2-methyloctacosane
Formula:
MW:
CAS#:
Comments: in-silico spectrum 46
Num peaks: 17
29.00 54.29
41.00 270.51
42.00 59.46
43.00 584.00
55.00 192.22
56.00 211.07
57.00 871.61
69.00 110.31
70.00 79.21
71.00 537.68
83.00 7.58
84.00 49.50
85.00 368.11
97.00 14.44
99.00 139.60
113.00 57.54
127.00 37.29
Name: Cyclohexane, 1,1-dimethyl-2-propyl-
Formula:
MW:
CAS#:
Comments: in-silico spectrum 47
Num peaks: 23
27.00 201.43
29.00 275.61
39.00 194.32
41.00 548.49
42.00 141.75
43.00 455.48
54.00 44.21
55.00 627.40
56.00 349.35
57.00 384.56
67.00 93.34
68.00 108.18
69.00 578.57
70.00 258.01
71.00 107.68
82.00 59.76
83.00 418.27
84.00 174.39
85.00 63.29
97.00 314.10
98.00 62.27
111.00 167.00
125.00 70.72
Name: Tricosane
Formula:
MW:
CAS#:
Comments: in-silico spectrum 48
Num peaks: 15
29.00 86.28
41.00 284.94
42.00 63.69
43.00 604.58
55.00 186.57
56.00 204.24
57.00 848.84
69.00 86.78
70.00 77.79
71.00 510.24
84.00 52.46
85.00 345.23
99.00 120.13
113.00 41.06
127.00 21.73
Name: Dodecane, 2-methyl-6-propyl-
Formula:
MW:
CAS#:
Comments: in-silico spectrum 49
Num peaks: 16
27.00 57.59
29.00 145.97
39.00 27.28
41.00 325.14
42.00 71.96
43.00 703.00
55.00 146.43
56.00 214.07
57.00 868.04
69.00 40.24
70.00 83.44
71.00 498.40
84.00 63.23
85.00 331.40
99.00 86.63
113.00 0.63
Name: Triacontane, 11,20-didecyl-
Formula:
MW:
CAS#:
Comments: in-silico spectrum 50
Num peaks: 19
41.00 220.89
42.00 44.14
43.00 510.16
55.00 209.65
56.00 199.25
57.00 846.75
69.00 146.39
70.00 67.81
71.00 544.41
83.00 66.80
84.00 42.31
85.00 392.42
97.00 80.72
98.00 7.63
99.00 166.10
111.00 10.51
113.00 84.96
127.00 63.21
141.00 37.21
Name: Tetracosane, 12-decyl-12-nonyl-
Formula:
MW:
CAS#:
Comments: in-silico spectrum 51
Num peaks: 19
41.00 228.21
42.00 46.16
43.00 531.35
55.00 210.88
56.00 211.21
57.00 890.52
69.00 146.51
70.00 75.28
71.00 577.45
83.00 55.63
84.00 45.74
85.00 413.32
97.00 73.20
98.00 5.92
99.00 174.58
111.00 2.23
113.00 89.11
127.00 68.51
141.00 38.18
Name: Hexadecane, 4-methyl-
Formula:
MW:
CAS#:
Comments: in-silico spectrum 52
Num peaks: 15
27.00 63.64
29.00 154.83
39.00 30.46
41.00 330.24
42.00 73.69
43.00 703.16
55.00 159.03
56.00 205.64
57.00 842.84
69.00 40.81
70.00 80.15
71.00 476.47
84.00 64.35
85.00 318.19
99.00 78.60
Name: Heptane, 2,2,3,3,5,6,6-heptamethyl-
Formula:
MW:
CAS#:
Comments: in-silico spectrum 53
Num peaks: 17
27.00 11.50
29.00 62.50
39.00 7.93
41.00 202.49
42.00 39.33
43.00 472.83
55.00 73.47
56.00 172.81
57.00 659.91
69.00 34.96
70.00 73.57
71.00 414.57
84.00 46.15
85.00 280.73
99.00 85.91
113.00 16.94
127.00 8.06
Name: Undecane
Formula:
MW:
CAS#:
Comments: in-silico spectrum 54
Num peaks: 14
27.00 123.56
29.00 197.33
39.00 68.99
41.00 357.83
42.00 79.18
43.00 806.45
55.00 129.80
56.00 208.64
57.00 830.64
70.00 84.31
71.00 442.50
84.00 84.71
85.00 316.16
99.00 45.49
Name: 3-Methylheptacosane
Formula:
MW:
CAS#:
Comments: in-silico spectrum 55
Num peaks: 17
29.00 45.04
41.00 255.85
42.00 55.86
43.00 551.26
55.00 192.38
56.00 204.49
57.00 837.59
69.00 115.43
70.00 77.32
71.00 520.57
83.00 22.54
84.00 47.65
85.00 358.36
97.00 28.74
99.00 138.65
113.00 60.28
127.00 40.21
Name: Eicosane, 3-methyl-
Formula:
MW:
CAS#:
Comments: in-silico spectrum 56
Num peaks: 15
29.00 90.97
41.00 284.35
42.00 63.31
43.00 601.45
55.00 174.91
56.00 206.03
57.00 839.37
69.00 84.97
70.00 80.07
71.00 504.48
84.00 52.33
85.00 338.11
99.00 115.33
113.00 36.51
127.00 17.62
Name: 5-Methyldocosane
Formula:
MW:
CAS#:
Comments: in-silico spectrum 57
Num peaks: 15
29.00 91.18
41.00 290.22
42.00 64.45
43.00 612.17
55.00 183.31
56.00 203.72
57.00 844.93
69.00 85.78
70.00 77.64
71.00 505.30
84.00 52.60
85.00 340.75
99.00 115.66
113.00 36.67
127.00 17.22
Name: Hexadecane
Formula:
MW:
CAS#:
Comments: in-silico spectrum 58
Num peaks: 16
27.00 48.61
29.00 141.28
39.00 21.25
41.00 316.78
42.00 71.37
43.00 674.25
55.00 160.56
56.00 204.21
57.00 841.59
69.00 44.49
70.00 78.49
71.00 481.73
84.00 60.23
85.00 320.09
99.00 87.15
113.00 6.40
Name: Hexacosane, 13-dodecyl-
Formula:
MW:
CAS#:
Comments: in-silico spectrum 59
Num peaks: 20
29.00 18.52
41.00 251.83
42.00 52.57
43.00 549.29
55.00 222.36
56.00 199.99
57.00 851.54
69.00 135.42
70.00 69.97
71.00 532.81
83.00 74.74
84.00 46.45
85.00 378.32
97.00 65.82
98.00 5.39
99.00 151.99
111.00 0.54
113.00 72.89
127.00 50.67
141.00 12.12
Name: 13,17,21-Trimethyltritriacontane
Formula:
MW:
CAS#:
Comments: in-silico spectrum 60
Num peaks: 19
29.00 13.30
41.00 231.28
42.00 48.50
43.00 513.83
55.00 188.65
56.00 200.66
57.00 825.29
69.00 128.64
70.00 72.97
71.00 523.86
83.00 28.56
84.00 43.38
85.00 367.15
97.00 48.67
98.00 2.45
99.00 150.23
113.00 71.56
127.00 51.93
141.00 15.83
Name: Tetracosane
Formula:
MW:
CAS#:
Comments: in-silico spectrum 61
Num peaks: 16
29.00 77.10
41.00 276.56
42.00 61.76
43.00 588.91
55.00 187.29
56.00 201.99
57.00 840.54
69.00 90.84
70.00 76.65
71.00 508.62
83.00 4.09
84.00 50.97
85.00 345.44
99.00 123.33
113.00 45.08
127.00 25.72
Name: Hexadecane, 7,9-dimethyl-
Formula:
MW:
CAS#:
Comments: in-silico spectrum 62
Num peaks: 16
27.00 42.48
29.00 131.61
39.00 18.33
41.00 304.66
42.00 67.52
43.00 642.68
55.00 152.74
56.00 202.98
57.00 812.93
69.00 56.19
70.00 79.24
71.00 468.80
84.00 58.35
85.00 311.87
99.00 87.10
113.00 8.71
Name: Cis-1,3-di(n-hexyl)cyclohexane
Formula:
MW:
CAS#:
Comments: in-silico spectrum 63
Num peaks: 26
27.00 40.76
29.00 176.46
39.00 88.82
41.00 533.27
42.00 108.83
43.00 528.80
54.00 52.51
55.00 726.28
56.00 257.81
57.00 564.76
67.00 200.59
68.00 102.94
69.00 500.14
70.00 165.05
71.00 228.29
81.00 34.61
82.00 358.66
83.00 637.74
84.00 109.96
85.00 152.57
96.00 88.58
97.00 374.32
98.00 52.70
99.00 20.00
111.00 196.94
125.00 94.13
Name: Naphthalene, 1-(1-decylundecyl)decahydro-
Formula:
MW:
CAS#:
Comments: in-silico spectrum 64
Num peaks: 26
29.00 71.37
39.00 24.65
41.00 458.89
42.00 72.34
43.00 470.27
54.00 38.96
55.00 643.02
56.00 161.10
57.00 470.69
67.00 272.13
68.00 127.48
69.00 450.27
70.00 93.06
71.00 192.86
81.00 190.58
82.00 361.16
83.00 578.76
84.00 59.23
85.00 140.58
95.00 209.86
96.00 157.73
97.00 339.83
98.00 26.43
99.00 22.97
111.00 168.26
125.00 80.29
Name: Tridecane, 4,8-dimethyl-
Formula:
MW:
CAS#:
Comments: in-silico spectrum 65
Num peaks: 15
27.00 83.96
29.00 162.33
39.00 43.58
41.00 322.99
42.00 70.25
43.00 705.41
55.00 130.06
56.00 206.99
57.00 812.58
69.00 27.34
70.00 83.83
71.00 455.57
84.00 69.65
85.00 309.01
99.00 65.70
Name: 3-Methyltriacontane
Formula:
MW:
CAS#:
Comments: in-silico spectrum 66
Num peaks: 19
29.00 31.77
41.00 247.93
42.00 53.41
43.00 538.94
55.00 197.77
56.00 204.04
57.00 837.80
69.00 123.99
70.00 75.93
71.00 525.04
83.00 35.78
84.00 46.63
85.00 364.91
97.00 43.13
98.00 2.31
99.00 144.93
113.00 66.46
127.00 46.08
141.00 3.73
Name: Undecane, 5-methyl-
Formula:
MW:
CAS#:
Comments: in-silico spectrum 67
Num peaks: 15
27.00 104.21
29.00 178.48
39.00 56.93
41.00 337.74
42.00 74.26
43.00 755.08
55.00 124.89
56.00 204.79
57.00 818.08
69.00 3.64
70.00 81.77
71.00 446.31
84.00 76.11
85.00 310.35
99.00 54.23
Name: 9-methylheptadecane
Formula:
MW:
CAS#:
Comments: in-silico spectrum 68
Num peaks: 16
27.00 40.48
29.00 133.91
39.00 16.44
41.00 316.29
42.00 70.39
43.00 670.62
55.00 160.28
56.00 211.31
57.00 855.00
69.00 57.40
70.00 82.29
71.00 495.62
84.00 60.19
85.00 329.19
99.00 93.69
113.00 11.49
Name: 11-Methylnonacosane
Formula:
MW:
CAS#:
Comments: in-silico spectrum 69
Num peaks: 17
29.00 48.03
41.00 263.09
42.00 57.24
43.00 565.18
55.00 197.01
56.00 203.14
57.00 844.09
69.00 114.02
70.00 75.62
71.00 521.52
83.00 25.61
84.00 48.30
85.00 360.14
97.00 26.15
99.00 137.53
113.00 58.67
127.00 38.29
Name: 4,8,12-Trimethyldotriacontane
Formula:
MW:
CAS#:
Comments: in-silico spectrum 70
Num peaks: 19
29.00 21.11
41.00 241.25
42.00 50.78
43.00 528.11
55.00 197.44
56.00 198.47
57.00 826.36
69.00 127.16
70.00 71.82
71.00 519.88
83.00 39.54
84.00 44.34
85.00 364.17
97.00 48.09
98.00 1.92
99.00 146.35
113.00 68.63
127.00 48.22
141.00 9.24
Name: Decane, 5,6-bis(2,2-dimethylpropylidene)-, (E,Z)-
Formula:
MW:
CAS#:
Comments: in-silico spectrum 71
Num peaks: 24
27.00 50.42
29.00 167.31
39.00 50.32
41.00 423.26
42.00 94.47
43.00 483.46
54.00 5.52
55.00 451.22
56.00 294.56
57.00 575.54
67.00 37.41
68.00 112.70
69.00 446.31
70.00 171.13
71.00 270.47
83.00 278.43
84.00 104.54
85.00 184.84
96.00 44.49
97.00 295.34
98.00 76.79
99.00 49.12
111.00 163.14
125.00 121.22
Name: Undecane, 4,6-dimethyl-
Formula:
MW:
CAS#:
Comments: in-silico spectrum 72
Num peaks: 15
27.00 125.37
29.00 191.74
39.00 71.88
41.00 343.09
42.00 74.28
43.00 770.81
55.00 119.96
56.00 204.59
57.00 776.53
69.00 4.12
70.00 85.52
71.00 412.12
84.00 86.54
85.00 301.19
99.00 38.18
Name: 1-Cyclopentyleicosane
Formula:
MW:
CAS#:
Comments: in-silico spectrum 73
Num peaks: 27
27.00 41.27
29.00 181.92
39.00 96.61
41.00 615.65
42.00 127.11
43.00 590.77
54.00 59.38
55.00 792.19
56.00 307.91
57.00 596.84
67.00 239.67
68.00 192.45
69.00 634.97
70.00 203.04
71.00 234.83
81.00 108.16
82.00 285.78
83.00 649.04
84.00 126.51
85.00 155.98
95.00 111.69
96.00 133.38
97.00 445.29
98.00 70.22
99.00 16.82
111.00 233.88
125.00 114.38
Name: 13-Methylnonacosane
Formula:
MW:
CAS#:
Comments: in-silico spectrum 74
Num peaks: 17
29.00 47.28
41.00 262.04
42.00 57.00
43.00 563.38
55.00 195.89
56.00 203.75
57.00 843.89
69.00 114.80
70.00 76.06
71.00 521.99
83.00 24.02
84.00 48.23
85.00 360.31
97.00 26.60
99.00 137.93
113.00 59.01
127.00 38.67
Name: Hexacosane, 9-octyl-
Formula:
MW:
CAS#:
Comments: in-silico spectrum 75
Num peaks: 18
29.00 37.02
41.00 270.01
42.00 57.16
43.00 579.29
55.00 232.37
56.00 193.94
57.00 856.29
69.00 120.28
70.00 66.41
71.00 526.17
83.00 84.70
84.00 48.04
85.00 372.88
97.00 50.92
98.00 0.47
99.00 143.74
113.00 65.08
127.00 43.03
Name: Dodecane, 3-methyl-
Formula:
MW:
CAS#:
Comments: in-silico spectrum 76
Num peaks: 15
27.00 89.80
29.00 167.75
39.00 47.69
41.00 328.65
42.00 72.42
43.00 726.37
55.00 129.85
56.00 204.56
57.00 822.05
69.00 14.28
70.00 81.62
71.00 456.99
84.00 70.90
85.00 311.45
99.00 63.06
Name: Heptane, 2,3-dimethyl-
Formula:
MW:
CAS#:
Comments: in-silico spectrum 77
Num peaks: 14
27.00 193.80
29.00 230.11
39.00 121.59
41.00 385.45
42.00 79.33
43.00 951.22
55.00 91.09
56.00 211.93
57.00 775.72
70.00 98.62
71.00 380.87
84.00 123.09
85.00 333.87
99.00 1.12
Name: 3,3-Diethyltridecane
Formula:
MW:
CAS#:
Comments: in-silico spectrum 78
Num peaks: 17
27.00 24.76
29.00 113.40
39.00 10.79
41.00 299.35
42.00 65.72
43.00 653.01
55.00 153.77
56.00 207.39
57.00 861.17
69.00 51.18
70.00 82.21
71.00 514.85
84.00 59.71
85.00 346.35
99.00 103.96
113.00 19.91
127.00 6.87
Name: Docosane, 7-hexyl-
Formula:
MW:
CAS#:
Comments: in-silico spectrum 79
Num peaks: 17
29.00 74.39
41.00 295.67
42.00 64.88
43.00 620.37
55.00 221.88
56.00 197.72
57.00 864.29
69.00 99.89
70.00 70.61
71.00 518.07
83.00 51.95
84.00 51.96
85.00 358.64
97.00 14.60
99.00 127.56
113.00 48.58
127.00 26.90
Name: Pentacosane
Formula:
MW:
CAS#:
Comments: in-silico spectrum 80
Num peaks: 17
29.00 74.12
41.00 276.82
42.00 61.62
43.00 589.64
55.00 190.61
56.00 203.62
57.00 846.99
69.00 94.86
70.00 77.18
71.00 513.90
83.00 8.25
84.00 51.19
85.00 350.04
97.00 1.10
99.00 126.26
113.00 47.46
127.00 27.81
Name: Hexadecane, 2,6,10-trimethyl-
Formula:
MW:
CAS#:
Comments: in-silico spectrum 81
Num peaks: 17
27.00 20.48
29.00 110.05
39.00 5.83
41.00 292.97
42.00 64.63
43.00 626.43
55.00 149.91
56.00 210.00
57.00 842.32
69.00 64.71
70.00 81.88
71.00 500.15
84.00 54.92
85.00 331.56
99.00 103.56
113.00 22.10
127.00 5.57
Name: Cyclooctacosane
Formula:
MW:
CAS#:
Comments: in-silico spectrum 82
Num peaks: 26
27.00 50.50
29.00 194.86
39.00 87.42
41.00 562.17
42.00 125.41
43.00 564.39
54.00 44.06
55.00 730.03
56.00 344.36
57.00 640.02
67.00 139.59
68.00 148.04
69.00 605.38
70.00 231.67
71.00 286.97
81.00 11.66
82.00 191.23
83.00 583.07
84.00 137.06
85.00 186.22
96.00 96.40
97.00 448.89
98.00 87.27
99.00 38.13
111.00 247.77
125.00 124.16
Name: Hexane, 2,3,5-trimethyl-
Formula:
MW:
CAS#:
Comments: in-silico spectrum 83
Num peaks: 13
27.00 171.19
29.00 195.06
39.00 108.78
41.00 330.21
42.00 65.77
43.00 830.60
55.00 66.94
56.00 184.11
57.00 657.23
70.00 86.49
71.00 317.32
84.00 110.57
85.00 291.88
Name: 6,6-Diethylhexadecane
Formula:
MW:
CAS#:
Comments: in-silico spectrum 84
Num peaks: 15
29.00 73.17
41.00 279.22
42.00 61.56
43.00 606.02
55.00 177.79
56.00 207.12
57.00 873.67
69.00 82.14
70.00 80.12
71.00 537.46
84.00 52.49
85.00 364.64
99.00 129.47
113.00 46.73
127.00 30.55
Name: Pentatriacontane, 13-docosenylidene-
Formula:
MW:
CAS#:
Comments: in-silico spectrum 85
Num peaks: 23
29.00 99.23
41.00 410.74
42.00 80.37
43.00 590.13
55.00 486.12
56.00 250.04
57.00 747.54
67.00 78.97
68.00 75.95
69.00 374.95
70.00 119.60
71.00 397.54
82.00 82.28
83.00 368.09
84.00 79.98
85.00 294.20
96.00 89.24
97.00 298.75
98.00 59.85
99.00 97.51
111.00 158.34
113.00 29.92
125.00 100.86
Name: Pentatriacontane
Formula:
MW:
CAS#:
Comments: in-silico spectrum 86
Num peaks: 19
29.00 18.33
41.00 236.01
42.00 50.43
43.00 523.69
55.00 202.13
56.00 199.22
57.00 831.96
69.00 125.37
70.00 72.11
71.00 525.03
83.00 52.32
84.00 45.49
85.00 369.82
97.00 54.58
98.00 4.81
99.00 150.24
113.00 72.18
127.00 51.93
141.00 14.38
Name: Heptane, 3,4-dimethyl-
Formula:
MW:
CAS#:
Comments: in-silico spectrum 87
Num peaks: 13
27.00 218.16
29.00 242.40
39.00 137.93
41.00 391.56
42.00 79.72
43.00 982.03
55.00 85.32
56.00 212.87
57.00 729.25
70.00 105.84
71.00 341.96
84.00 138.05
85.00 330.58
Name: Pentane, 2,2,3,4-tetramethyl-
Formula:
MW:
CAS#:
Comments: in-silico spectrum 88
Num peaks: 13
27.00 192.78
29.00 192.17
39.00 127.82
41.00 309.86
42.00 58.16
43.00 798.93
55.00 53.76
56.00 178.42
57.00 520.39
70.00 98.18
71.00 228.77
84.00 129.92
85.00 268.48
Name: Nonane, 5-(2-methylpropyl)-
Formula:
MW:
CAS#:
Comments: in-silico spectrum 89
Num peaks: 15
27.00 102.04
29.00 181.34
39.00 53.86
41.00 344.69
42.00 74.24
43.00 754.84
55.00 132.59
56.00 219.98
57.00 838.02
69.00 26.13
70.00 89.80
71.00 461.05
84.00 78.84
85.00 319.39
99.00 59.89
Name: Octadecane, 2,6-dimethyl-
Formula:
MW:
CAS#:
Comments: in-silico spectrum 90
Num peaks: 17
27.00 20.65
29.00 114.30
39.00 5.47
41.00 303.75
42.00 67.54
43.00 645.83
55.00 162.14
56.00 210.78
57.00 858.70
69.00 66.65
70.00 81.17
71.00 506.46
84.00 56.13
85.00 336.72
99.00 104.58
113.00 22.30
127.00 4.97
Name: Octane, 2-methyl-
Formula:
MW:
CAS#:
Comments: in-silico spectrum 91
Num peaks: 14
27.00 156.62
29.00 210.45
39.00 93.98
41.00 363.47
42.00 77.45
43.00 858.39
55.00 102.64
56.00 209.55
57.00 791.03
70.00 88.54
71.00 402.55
84.00 101.25
85.00 316.58
99.00 23.26
